388
pair_id=pair_7281369a0f23aafabcfb start=1 nco_site=1 oh_site=1 attack_angle_deg=105.000000
C   0.284581330700 -2.856296821600 -1.075228802200
C   0.162525852300 -1.597457455400 -0.204947230400
C   0.845005092100 -1.904537770700  1.131145514700
C  -1.328669048700 -1.291252660800 -0.005722197300
C  -1.570475083400  0.087872243400  0.610820554000
C  -0.957110448900  1.181183157800 -0.269036073900
C   0.549683356000  0.994266183800 -0.497159448500
C   1.002261202900  1.956948628000 -1.604047402300
C   1.307902346100  1.391971275300  0.789954740500
N   2.703572888200  1.171113099200  0.732383851000
C   3.569168631800  0.422084370500  0.420855653800
O   4.549802891200 -0.154504117100  0.185714036600
C   0.831914196600 -0.441038993400 -0.968894226600
N  -2.963431143600  0.322177330700  0.785377568700
C  -4.013442667400  0.395831636900  0.235484889300
O  -5.116375984200  0.510373170000 -0.104212560000
H  -0.200973184600 -3.701335647600 -0.592771820900
H  -0.180392270100 -2.708228461400 -2.047427195000
H   1.331183276900 -3.106678504200 -1.231501354200
H   0.669336818000 -1.138529666000  1.878580217000
H   1.919144116400 -2.004976794700  0.992809095200
H   0.466878515000 -2.844074041600  1.529162011100
H  -1.834031280800 -1.321260360500 -0.974603031900
H  -1.780892848400 -2.056062502900  0.628522771700
H  -1.151102782700  0.129873374500  1.620567689400
H  -1.463600897200  1.156635133100 -1.237165534300
H  -1.148305840500  2.158375955300  0.179489575800
H   0.772454559600  2.985326617500 -1.333946347600
H   2.075584442100  1.874781849200 -1.759270064200
H   0.502011787900  1.732699420800 -2.543044673500
H   0.909588571900  0.871441133300  1.663883790100
H   1.176321145700  2.466024633200  0.954683369000
H   0.487257832900 -0.500634134700 -2.004285460000
H   1.911225245100 -0.607683746400 -0.987976068100
O   4.019664447458  2.943934857229 -0.431977062891
C   4.254402547038  4.257985665481 -0.876359284028
C   5.627917870048  4.799702107667 -0.482671809010
C   6.810463549626  4.168347285458 -1.236730140609
C   7.318482164689  2.845691828728 -0.659409857010
O   6.481878323742  1.720504017233 -0.905621873178
C   6.626406884906  1.191275496774 -2.218260735239
C   5.528621643191  0.191897110791 -2.550910741990
C   5.511927211198 -0.981983269970 -1.581813269945
C   4.433281230306 -2.004750948236 -1.901138812481
O   4.390764242824 -3.068068912391 -0.958617523654
C   5.488209512229 -3.974775937221 -1.086912576173
C   6.156640655845 -4.283019476899  0.244996835095
C   7.309360039688 -5.273502567585  0.095846137137
C   7.802118576759 -5.838458541203  1.420755478277
O   8.476725845631 -4.891364111488  2.241178000469
C   8.926055332623 -5.501210409145  3.450426396394
C   9.716298623892 -4.567586078351  4.357303966325
C   10.005714363212 -5.204430771550  5.711897331721
C   10.631757643951 -4.240084615410  6.706440189097
O   11.890280179594 -3.739117336920  6.269887795092
C   12.639756810349 -3.164756335907  7.336782040773
C   13.841735574342 -2.371317590338  6.844616391585
C   13.431181548795 -1.107580749163  6.096939706165
C   12.667230163943 -1.397097144396  4.816260791089
O   12.226891056319 -0.207130535003  4.172989860572
C   11.418507671572 -0.483227192481  3.034866735133
C   10.772722253752  0.773937733726  2.475146286068
C   9.848373897558  0.500780065522  1.293447291982
C   8.760873763095 -0.500431308963  1.654535295632
O   8.151094692451 -0.207012598484  2.901478056190
C   7.213469082210  0.857979231823  2.856296392127
C   5.991311271457  0.504584238291  2.022516593167
C   4.759124061425  1.350045934359  2.313090604328
C   3.536531115550  0.715637443075  1.667601446897
O   3.435200748105 -0.650915678366  2.050827610142
C   2.386232405620 -1.348333471261  1.390358599831
C   2.365930822384 -2.816873635496  1.784624019310
C   1.251798449690 -3.616916004186  1.117399995494
C   1.446975836607 -3.779423713061 -0.381604297595
O   0.478199461984 -4.657379606709 -0.942728328348
C   0.620558943931 -4.813366478281 -2.349540490006
C  -0.197778682241 -5.991991457275 -2.851016587996
C  -1.678388388430 -5.841106366617 -2.534143155534
C  -2.431394341359 -7.138954715110 -2.785317751030
O  -1.904728839318 -8.180099245617 -1.970875426365
C  -2.343646906199 -9.484070793396 -2.335140289384
C  -1.522694379471 -10.535131776650 -1.603683824722
C  -0.036955324245 -10.329845610586 -1.870892563924
C   0.866771847622 -11.191012677155 -1.005039411737
O   2.235050452697 -10.853872328604 -1.188963394369
C   3.122601159220 -11.613609762609 -0.382210547163
C   2.856691740955 -11.488900212270  1.116780933621
C   4.063622954438 -11.857930060135  1.974860706094
C   5.121343069350 -10.766290839586  1.930049572928
O   4.651035875936 -9.563104714643  2.537654645815
C   5.236370893542 -8.385153735299  1.991442015910
C   4.342539040212 -7.717750096170  0.956944440961
C   2.984728582924 -7.310433019414  1.521522254266
C   3.104314904441 -6.502603606132  2.807324059423
O   3.968510177561 -5.379320897732  2.660302386155
C   4.486480493588 -4.921348964509  3.908177907945
C   5.437319712348 -3.744446206455  3.740562796461
C   6.206757874448 -3.409394925611  5.011983661533
C   7.117188496245 -2.196273668614  4.844037321402
O   8.206423457428 -2.205021631663  5.763496291742
C   8.800376728423 -0.923070682971  5.922395751082
C   8.091416912701 -0.121902393574  6.999316082932
C   8.085361838649 -0.896834665416  8.308094310886
C   7.350115240556 -0.193941946382  9.435591529278
O   7.358370767746 -0.971134880598  10.629314693069
C   6.834536134170 -0.283860887968  11.756099751094
C   7.672100180151  0.923501459321  12.157547237338
C   9.151962818304  0.567700595919  12.240300756975
C   10.059534276047  1.782042090579  12.373316507418
O   11.436096674496  1.459787039761  12.524159415750
C   11.943635812260  0.655371500363  11.466416152594
C   13.454695595569  0.499044208768  11.525874745388
C   14.000593069331 -0.466248466753  10.476029275045
C   13.447273087616 -1.875283678110  10.646940824215
O   12.059335714590 -1.943178165302  10.334796608728
C   11.447604817976 -3.142349682903  10.800500726885
C   9.969784125865 -3.201893993473  10.447840422264
C   9.300034572330 -4.489640129693  10.909151924994
C   7.825523686874 -4.548014330427  10.542569419390
O   7.213082745447 -5.778459323871  10.927506705635
C   5.798977200692 -5.724833328314  10.800608327723
C   5.111824955170 -7.076239888072  10.945548600082
C   5.398516741197 -7.763738368926  12.275500012561
C   6.785510613457 -8.382353774855  12.312849917720
O   6.924288902071 -9.437809307988  11.363399968212
C   8.266818588102 -9.915858104629  11.247329480346
C   8.936528804515 -9.459658322079  9.956857120098
C   8.802335419962 -7.962064801325  9.751252751482
C   9.476060713880 -7.460753198168  8.483159683418
O   9.171411138320 -8.219967808496  7.324963028083
C   7.789032562086 -8.241113064298  6.984726937488
C   7.557999917119 -9.061014248214  5.722869640649
C   6.086717376944 -9.314771450754  5.407258456094
C   5.379823009170 -10.163445494602  6.459701727738
O   4.144984601672 -10.716061480276  6.020611345318
C   3.278874941051 -9.746627889010  5.447572604733
C   1.848552500945 -10.242583303804  5.292339496604
C   0.967941912434 -9.243142741285  4.545292410072
C   0.763856148691 -7.941493956070  5.307754603965
O   0.179023691850 -6.922467772029  4.504592617334
C  -0.237638400053 -5.802126936622  5.284069550245
C  -0.253458822088 -4.512276091895  4.480882871466
C  -0.836459391835 -3.336807688515  5.253736439233
C  -0.690418305938 -2.035831695171  4.481529665457
O   0.665986790731 -1.724480661824  4.196699857664
C   1.349039205726 -1.146608387052  5.305291360821
C   2.829392225851 -0.947330985202  5.019506676077
C   3.572461810050 -0.185693421053  6.110369462565
C   3.650903543808 -0.975674514288  7.406852160136
O   4.251128138919 -2.247914355416  7.204613282764
C   4.604106527205 -2.902292435683  8.413139587117
C   3.405596922209 -3.270249685143  9.271760138101
C   2.371590657492 -4.100617414529  8.517456172729
C   2.921197123898 -5.412070653405  7.961935525658
O   1.888066130415 -6.339363977984  7.648186947696
C   1.485201215017 -7.107692075208  8.779009141399
C   2.323947055579 -8.366159206589  8.947649642593
C   2.067571896550 -9.102076170172  10.256500108400
C   2.856387252422 -10.400292107863  10.303801620589
O   2.457508486223 -11.255514755643  9.237547749547
C   3.432334938406 -12.229569232761  8.887294954023
C   2.966813439732 -13.033278919328  7.683929075666
C   1.659003425001 -13.756501335336  7.971341502994
C   0.968757873812 -14.229695321282  6.701041599176
O   0.509170125141 -13.128982821408  5.926347740968
C  -0.209529378617 -13.522533985438  4.761928454100
C   0.702104254480 -13.870798317471  3.596117117949
C  -0.049001853810 -14.225752333610  2.315387386475
C  -1.002473374545 -13.131127023264  1.845582251357
O  -0.386864975664 -11.868962008135  1.712949972300
H   4.842267777045  2.423128806796 -0.594410832175
H   3.448932969738  4.875579145155 -0.458637991411
H   4.126428923056  4.281910347455 -1.965971756580
H   5.634056362810  5.886401720760 -0.645028043104
H   5.770330997295  4.669126113973  0.595593046549
H   6.542466584307  4.039059973401 -2.289918422282
H   7.646161625319  4.882290726627 -1.244647774954
H   7.424306461589  2.933431385225  0.427046458313
H   8.315262943449  2.598756937478 -1.044393778346
H   6.631475035824  2.019866177843 -2.934367020361
H   7.611142883424  0.713875489600 -2.272119400453
H   5.643379288264 -0.176297362198 -3.577863017241
H   4.557140129978  0.698700117051 -2.524091856435
H   5.359166855545 -0.619173677190 -0.561245979925
H   6.496291070182 -1.461580187671 -1.566394188388
H   3.445858336760 -1.530473078778 -1.899432148461
H   4.567807129444 -2.431687739435 -2.901118474807
H   5.095308438737 -4.891288360215 -1.542437240601
H   6.219339915139 -3.573657795760 -1.796867635108
H   5.401376961843 -4.680284681915  0.931565244530
H   6.508506737143 -3.354987969270  0.709185879260
H   8.144131851182 -4.795037368242 -0.428625598427
H   6.988156696379 -6.095712076951 -0.556440057350
H   8.492899502609 -6.673343154633  1.251116866528
H   6.960341427996 -6.232410184219  1.998764815901
H   9.532134609371 -6.376311726409  3.190462561211
H   8.041214986852 -5.878656371456  3.975211199847
H   9.155460528132 -3.639991879248  4.497967115267
H   10.649026302775 -4.263406622313  3.869649599520
H   10.665735092064 -6.069021397652  5.577738821656
H   9.072678274376 -5.607464777628  6.122906316600
H   10.780342454369 -4.724205565533  7.678676153034
H   9.974598481740 -3.379093764399  6.870417518370
H   12.947943422659 -3.986292530745  7.994145345231
H   11.970666542465 -2.517894510769  7.915810653602
H   14.494838575149 -2.112988802424  7.688067171569
H   14.441522862536 -3.008725242942  6.185475532181
H   14.308281827633 -0.494553075055  5.856255488891
H   12.808865570470 -0.479846309315  6.745107010587
H   13.286020426171 -1.961434473338  4.109916817292
H   11.785555612391 -2.010605957207  5.030198371291
H   10.651418041157 -1.203443267339  3.339474725024
H   12.042799541180 -0.974571469752  2.280545947437
H   11.554947806716  1.492911360915  2.203627825199
H   10.204037400084  1.252817474945  3.280482329680
H   9.390406718437  1.438495479587  0.958132415833
H   10.428357525677  0.134465047324  0.437274872344
H   7.992996372034 -0.575718718212  0.877486105685
H   9.182969434499 -1.507649924557  1.752544852057
H   7.708699880360  1.766394420433  2.499027083130
H   6.919234571909  1.055367312390  3.893300383819
H   6.233770729536  0.560051759964  0.957372515565
H   5.742518564695 -0.547412409107  2.208607324637
H   4.605820066977  1.406072091861  3.396702663481
H   4.903064616599  2.382789310696  1.973735006154
H   3.612986601670  0.751273025868  0.575666107308
H   2.609794640869  1.228815673936  1.948917569983
H   2.529134966738 -1.234641530530  0.311355079733
H   1.439151876848 -0.862913607228  1.651141382799
H   3.336404233321 -3.264908590500  1.542967402582
H   2.278204716533 -2.880234069621  2.875163667199
H   0.281311157037 -3.146535010663  1.310590615100
H   1.181000596869 -4.615850405466  1.563190997685
H   1.378584307056 -2.816601190648 -0.898490525909
H   2.439369133291 -4.193132012402 -0.594357257212
H   1.685165012149 -4.944074758611 -2.577620447199
H   0.296183609321 -3.880268222203 -2.823039766638
H  -0.052344087812 -6.146220293505 -3.927235254027
H   0.169845473048 -6.903822921046 -2.366155964608
H  -2.110584077213 -5.011174857411 -3.106212744392
H  -1.784267686478 -5.567718580824 -1.477617044231
H  -3.500552782662 -7.043426822538 -2.563710346643
H  -2.336667920920 -7.437707924010 -3.834812028947
H  -2.225984906699 -9.594752757421 -3.418545455279
H  -3.412905909055 -9.563243224682 -2.107936129468
H  -1.829593905166 -11.550099293436 -1.883484534129
H  -1.708477755473 -10.449104058385 -0.526636185503
H   0.189650975062 -10.500602718546 -2.929240679883
H   0.214695564056 -9.277715487430 -1.693239695296
H   0.733286068366 -12.255863221455 -1.223993378937
H   0.619972739328 -11.039672695269  0.049811181191
H   4.127544789416 -11.255718517125 -0.628293959106
H   3.082558222897 -12.658448634985 -0.710308228803
H   2.567991725248 -10.456778032547  1.341385148117
H   1.988803537701 -12.102344442987  1.383000273023
H   3.760506641037 -12.000945949285  3.019303843558
H   4.476119650190 -12.818641896578  1.643640719913
H   6.035768191160 -11.067072986104  2.454775526874
H   5.407612256834 -10.548159845655  0.896373626723
H   6.222554061006 -8.635244286673  1.581955410225
H   5.421775978433 -7.706127539678  2.830051412487
H   4.845894155896 -6.831394958026  0.555496587509
H   4.205960210258 -8.392886604060  0.103384455548
H   2.376598450092 -8.203799415925  1.701861235518
H   2.433711536347 -6.725087522203  0.774859075340
H   2.129556638211 -6.135644572147  3.149628701086
H   3.496074534712 -7.131659585546  3.613504346892
H   5.007694047034 -5.759075471848  4.384233882918
H   3.643505319574 -4.658064362492  4.556730860131
H   6.153975814821 -3.977366476922  2.946660219676
H   4.888905029300 -2.866396864652  3.382910525099
H   6.812898684078 -4.271212109684  5.312250702256
H   5.516329663014 -3.244636280210  5.844861925146
H   6.551598506765 -1.265416627473  4.956457273333
H   7.552751280906 -2.175676393720  3.838044278295
H   9.848099111426 -1.087029935952  6.197907731596
H   8.806456429625 -0.412775434585  4.952613155066
H   7.060500684275  0.086498380647  6.693507107390
H   8.567350638818  0.856777343899  7.136573265790
H   7.642164633896 -1.885845594153  8.145256953071
H   9.116893588411 -1.093055292882  8.620413439247
H   7.817240322920  0.775262242288  9.632652890595
H   6.308496262080  0.003921834166  9.163757514758
H   6.808093888194 -1.015463354514  12.571795189751
H   5.794282530910 -0.011960509540  11.542493616121
H   7.326527054922  1.338796007868  13.112420932016
H   7.533181107090  1.732160854953  11.431323210664
H   9.329889997113 -0.121113689339  13.073721402792
H   9.424757210538  0.005546555966  11.341187328160
H   9.961115028924  2.442885097936  11.504881313478
H   9.776402426300  2.376730150071  13.248835513476
H   11.634394797706  1.092054760328  10.510351041702
H   11.468499216980 -0.327212132003  11.544184631160
H   13.730315269505  0.148970244155  12.527204178376
H   13.920321620518  1.487105250256  11.427337474161
H   15.097604973905 -0.484249941924  10.514469878569
H   13.740531268164 -0.103910826171  9.475238861146
H   13.586905047560 -2.212122293016  11.679987973728
H   13.965908234218 -2.595226023606  10.003711905320
H   11.984646254772 -3.992310644596  10.365761753093
H   11.584242433805 -3.197619939214  11.886047844680
H   9.854714780954 -3.093804419705  9.364687297727
H   9.454043463984 -2.336837126340  10.878640973592
H   9.821541754782 -5.347603652573  10.473530050658
H   9.409848752603 -4.606592516209  11.993134955174
H   7.281625038842 -3.725128591896  11.020650129739
H   7.692453135213 -4.430757833372  9.461133635693
H   5.575974260699 -5.283376399562  9.823559866317
H   5.432967420125 -5.027351920836  11.562446051784
H   5.428966525821 -7.737138678305  10.131187868080
H   4.030196387463 -6.940011287184  10.821167070646
H   4.664267579985 -8.559066775281  12.454927294125
H   5.271804932447 -7.046228212831  13.095452301503
H   7.542550648219 -7.621144352268  12.100914148616
H   7.010237303712 -8.797177786810  13.302602641814
H   8.229069178563 -11.010162347296  11.309934158831
H   8.834535493634 -9.575367052615  12.120864270011
H   9.994914309018 -9.747585031313  9.945729233507
H   8.485095829790 -9.982115569722  9.106131072420
H   7.739292350186 -7.698797105359  9.732144945011
H   9.207865205352 -7.439274696420  10.625090189197
H   9.218616389617 -6.415172189567  8.282543392837
H   10.566209371558 -7.501298305348  8.590649606555
H   7.232615986269 -8.667462833731  7.824065552104
H   7.436680888318 -7.211592186323  6.859471756071
H   8.076626352637 -10.020134577430  5.834381618326
H   8.055736237263 -8.564950986030  4.880656174774
H   5.564787720623 -8.359217073892  5.284651854146
H   5.997108595113 -9.823615402115  4.440976261088
H   5.187849157901 -9.590674878762  7.373890108839
H   6.010514778820 -11.011024577008  6.750637953556
H   3.319270120265 -8.845971162360  6.068301206864
H   3.688591309597 -9.483085659555  4.467042045997
H   1.423177836452 -10.461199807475  6.277988149126
H   1.866864734585 -11.205025036570  4.769129615539
H   1.419183139200 -9.015748790269  3.574250391062
H  -0.010933646582 -9.679013285663  4.312413905833
H   0.128484971208 -8.103453345869  6.185663558829
H   1.716174416401 -7.543118507214  5.672957410835
H  -1.233132539360 -6.029839073801  5.681107099045
H   0.434478188181 -5.703176655797  6.144220034930
H  -0.814555214069 -4.669082274699  3.552761537885
H   0.767219852756 -4.272995295039  4.163002661059
H  -0.333785305156 -3.253891580894  6.223108405377
H  -1.890411621300 -3.530936843919  5.488663451810
H  -1.139318088352 -1.188086856219  5.012269872969
H  -1.204046765686 -2.109385539496  3.516152539081
H   0.869807835835 -0.187234379868  5.529106087336
H   1.207090922556 -1.788301489005  6.179269289612
H   2.926697765775 -0.430324554869  4.059230002171
H   3.298301268383 -1.925997060906  4.873702465400
H   4.591958570400  0.038269203996  5.773811079645
H   3.093489103417  0.786282729151  6.280621649319
H   2.650633297323 -1.136358597042  7.820882143507
H   4.228555031336 -0.434794499170  8.164736300084
H   5.311433976036 -2.264055658855  8.955126819240
H   5.160815909099 -3.800703296115  8.125653536714
H   3.737259736777 -3.818356826448  10.161838028467
H   2.939645256724 -2.356142281132  9.658860408818
H   1.520591206707 -4.319255576275  9.173347773496
H   1.949880030294 -3.516606864247  7.692141082598
H   3.603643496757 -5.885413889809  8.674091176361
H   3.501862919836 -5.239452356784  7.048527825017
H   0.427140437585 -7.361883616923  8.649056897110
H   1.542019193791 -6.478771349172  9.673852631469
H   2.134774284075 -9.044769654836  8.108951597693
H   3.386420845144 -8.116328509411  8.863793523626
H   0.998817569893 -9.328007521020  10.343325910634
H   2.308843160010 -8.461430088692  11.112794094460
H   3.929270070523 -10.198382022633  10.208470301815
H   2.706691988873 -10.941375069425  11.245266475001
H   4.375631117142 -11.711893224838  8.679582644996
H   3.592197318706 -12.876702469590  9.756405240300
H   3.736129612697 -13.741976070574  7.353682882593
H   2.815887945111 -12.345883029599  6.844195731555
H   0.985433987287 -13.068120711251  8.495640235047
H   1.833580919139 -14.589584781707  8.663512504103
H   0.102887106549 -14.860144431326  6.934989157714
H   1.653153659430 -14.825757398931  6.089059103860
H  -0.862377125978 -12.681388042474  4.505227319188
H  -0.871503682764 -14.357971976568  5.014457044690
H   1.371907031049 -13.024837232010  3.412349353301
H   1.365167988328 -14.694391086973  3.885604920615
H  -0.603709213802 -15.160935885334  2.461786854751
H   0.672759227891 -14.434128831751  1.515864548514
H  -1.428650003164 -13.381339231073  0.865723817920
H  -1.858713978573 -13.031509564283  2.524769045389
H  -0.106943145307 -11.534200826607  2.595167153688
