154
pair_id=pair_d0f7348c2ab6da21546e start=1 nco_site=1 oh_site=1 attack_angle_deg=105.000000
C   0.284581330700 -2.856296821600 -1.075228802200
C   0.162525852300 -1.597457455400 -0.204947230400
C   0.845005092100 -1.904537770700  1.131145514700
C  -1.328669048700 -1.291252660800 -0.005722197300
C  -1.570475083400  0.087872243400  0.610820554000
C  -0.957110448900  1.181183157800 -0.269036073900
C   0.549683356000  0.994266183800 -0.497159448500
C   1.002261202900  1.956948628000 -1.604047402300
C   1.307902346100  1.391971275300  0.789954740500
N   2.703572888200  1.171113099200  0.732383851000
C   3.569168631800  0.422084370500  0.420855653800
O   4.549802891200 -0.154504117100  0.185714036600
C   0.831914196600 -0.441038993400 -0.968894226600
N  -2.963431143600  0.322177330700  0.785377568700
C  -4.013442667400  0.395831636900  0.235484889300
O  -5.116375984200  0.510373170000 -0.104212560000
H  -0.200973184600 -3.701335647600 -0.592771820900
H  -0.180392270100 -2.708228461400 -2.047427195000
H   1.331183276900 -3.106678504200 -1.231501354200
H   0.669336818000 -1.138529666000  1.878580217000
H   1.919144116400 -2.004976794700  0.992809095200
H   0.466878515000 -2.844074041600  1.529162011100
H  -1.834031280800 -1.321260360500 -0.974603031900
H  -1.780892848400 -2.056062502900  0.628522771700
H  -1.151102782700  0.129873374500  1.620567689400
H  -1.463600897200  1.156635133100 -1.237165534300
H  -1.148305840500  2.158375955300  0.179489575800
H   0.772454559600  2.985326617500 -1.333946347600
H   2.075584442100  1.874781849200 -1.759270064200
H   0.502011787900  1.732699420800 -2.543044673500
H   0.909588571900  0.871441133300  1.663883790100
H   1.176321145700  2.466024633200  0.954683369000
H   0.487257832900 -0.500634134700 -2.004285460000
H   1.911225245100 -0.607683746400 -0.987976068100
O   1.583259023531 -1.213601658867 -0.398103588848
C   0.538140039638 -2.074409479053 -0.829094933047
C  -0.769981178261 -1.300775481069 -0.926682095090
C  -1.172548365130 -0.567650842021  0.358494046225
C  -1.254005261084 -1.457208981305  1.594558514278
O  -2.117069296155 -2.561465584529  1.329392806434
C  -2.248651949437 -3.413586829822  2.466017721101
C  -3.186213194985 -4.558322247904  2.101253721707
C  -3.346399702975 -5.543190124937  3.259957677347
C  -4.280172654539 -6.696923957565  2.908420393015
O  -5.594071073370 -6.186498460130  2.696158082377
C  -6.515741544573 -7.219655094192  2.354242665022
C  -7.893523413412 -6.609603475571  2.118061826302
C  -8.445153829388 -5.924041092980  3.373102182859
C  -9.829681832125 -5.322590295216  3.136214419102
O  -10.780001409385 -6.296711023139  2.706689658395
C  -11.310394737651 -7.080113896731  3.774891298402
C  -12.320193897255 -8.058248589066  3.183163659841
C  -12.910210963900 -9.020553229872  4.210134430938
C  -13.786200100017 -8.336499340129  5.254996618352
O  -14.321112128563 -9.348914986866  6.107292104165
C  -15.104554271418 -8.832960880678  7.181483349013
C  -16.472899250206 -8.316299165138  6.737529074788
C  -17.259288387741 -9.361140501523  5.938916205109
C  -18.661584806639 -8.877150757523  5.580803027331
O  -18.563196854832 -7.710191883570  4.766613239055
C  -19.831948621064 -7.199489470693  4.359598395437
C  -20.322308211598 -7.909421463320  3.100543153647
C  -21.634198750459 -7.315205230641  2.600046123983
C  -22.118079065010 -8.007338181329  1.331815151879
O  -23.353661284419 -7.409085543034  0.945150992152
C  -23.877791302093 -7.992614000068 -0.243609547452
C  -25.208060459568 -7.328259770150 -0.587432695582
C  -26.254698079205 -7.381460995018  0.529393113793
C  -26.629813240424 -8.802069171158  0.945654152153
O  -27.676213661754 -8.779180648198  1.917183196975
C  -28.989655643064 -8.748675605246  1.361725453672
C  -29.490833393519 -10.152871452518  1.025843284564
C  -29.509546662078 -11.067810585436  2.255507872820
C  -30.005018064857 -12.473602357202  1.919548540202
O  -31.297904936712 -12.469036354544  1.316938999797
C  -32.359275423538 -12.303028479067  2.253231379409
C  -33.692679343121 -12.374724171930  1.512129366282
C  -33.921614428644 -13.747220768107  0.867315385438
C  -35.301746143692 -13.872510465381  0.230184813525
O  -35.421060197256 -13.045976524259 -0.918443463733
H   2.403369468563 -1.736006863026 -0.413683407657
H   0.804510569999 -2.478164033315 -1.811357875414
H   0.457787687109 -2.909995588207 -0.127275850911
H  -1.569585081753 -1.984764343209 -1.234031250050
H  -0.676206052870 -0.547255467312 -1.718734805569
H  -2.157200978865 -0.115938968890  0.184077965950
H  -0.476690124499  0.256433917962  0.554218365498
H  -0.259932118514 -1.823019469557  1.874422410720
H  -1.653254762176 -0.874295583377  2.432751482984
H  -1.262895700386 -3.804344293829  2.743501537329
H  -2.657290282469 -2.842734200601  3.307733376565
H  -2.799180088210 -5.077150883727  1.215283962057
H  -4.158635855998 -4.145359965381  1.806066244114
H  -3.744795525919 -5.007261282514  4.130032507161
H  -2.365979951281 -5.947300742057  3.537286832924
H  -3.928664971251 -7.211175912891  2.006521792489
H  -4.301263079299 -7.412955400969  3.737830603920
H  -6.178471957407 -7.719732836020  1.439184888209
H  -6.560750298630 -7.957558710804  3.163527290225
H  -7.826251631678 -5.868236898281  1.312552424401
H  -8.577326342516 -7.399364357005  1.787303517210
H  -7.767798946635 -5.123939788442  3.693312956870
H  -8.486848853601 -6.654861283735  4.188087401071
H  -10.190621265391 -4.810077094202  4.035560259004
H  -9.764641494847 -4.569472775272  2.343183349357
H  -11.793940224175 -6.416381800283  4.498910376237
H  -10.506506947363 -7.631396604315  4.272666081260
H  -13.121057333731 -7.501267453517  2.680972664946
H  -11.827054302846 -8.638916080296  2.393058567208
H  -12.109015134066 -9.578736998873  4.710529580229
H  -13.510688668697 -9.775840243527  3.687049308982
H  -14.597773690600 -7.794613934005  4.759401867629
H  -13.197369975532 -7.635778174813  5.855571373537
H  -14.547743105088 -8.050897211239  7.710727584890
H  -15.247213646760 -9.656197296641  7.890303723617
H  -17.042953561206 -8.020915371598  7.626390246923
H  -16.345541194946 -7.414161108395  6.129154656534
H  -17.337130492680 -10.288708161324  6.517582169835
H  -16.716740358700 -9.590357550017  5.014009092677
H  -19.186473238329 -9.670187925475  5.038581694993
H  -19.223452426669 -8.643067696019  6.492316496852
H  -20.559819803140 -7.270848730733  5.176410095282
H  -19.688367181320 -6.135309732726  4.142824569680
H  -20.452317140700 -8.979458872636  3.298085360044
H  -19.551379439136 -7.838946742561  2.323142229097
H  -21.516163258337 -6.242127816768  2.403893226830
H  -22.406571494839 -7.395312407615  3.375312866399
H  -22.272359644287 -9.076445110697  1.517585157725
H  -21.383291358347 -7.885292869502  0.527804301025
H  -23.171599036950 -7.836069138353 -1.067234643275
H  -24.009188303376 -9.071321177850 -0.104696343531
H  -25.615181717016 -7.785902405493 -1.496545280960
H  -25.022339636145 -6.271107332784 -0.814910761127
H  -27.149026664821 -6.844212911022  0.192539112452
H  -25.903748855797 -6.828987181860  1.409874647792
H  -26.907950054991 -9.413342923166  0.080398515334
H  -25.773076057163 -9.284483453637  1.426648532754
H  -29.028573363292 -8.104011406835  0.476979743798
H  -29.646487024165 -8.301015558901  2.115570034334
H  -28.850487047603 -10.604918253520  0.260196169067
H  -30.498086770642 -10.071681207156  0.601539294557
H  -30.149413896858 -10.618512246869  3.022977135064
H  -28.503168784802 -11.146673292408  2.682588031962
H  -29.320199275618 -12.932553009745  1.197895216481
H  -30.003319881855 -13.111053898150  2.811384434702
H  -32.275583002306 -11.326482853196  2.740602525041
H  -32.309078329394 -13.085791433359  3.018681586396
H  -33.707881884957 -11.601816559124  0.735114730905
H  -34.504123782375 -12.157328554546  2.216107076855
H  -33.815090788038 -14.526580613606  1.630947062175
H  -33.154697671313 -13.921410437983  0.103435692614
H  -36.096164333465 -13.612149119746  0.937104951404
H  -35.465612039593 -14.905492466282 -0.092379619143
H  -35.314991243618 -12.122376912033 -0.637214901382
