357
pair_id=pair_86897ffb45df49ff7132 start=1 nco_site=1 oh_site=1 attack_angle_deg=105.000000
O   6.071138798300  2.480874245000 -0.539966886600
C   5.281563264000  1.703290642200 -0.203729312400
N   4.583194840700  0.895553337000  0.323028101100
C   3.469566272400  0.097992287700  0.217823463600
C   3.141003666300 -0.720825069600  1.291776942100
C   2.027239290200 -1.535897111400  1.217504870200
C   1.230376574900 -1.552900220000  0.080976745700
C   0.000129982500 -2.417918638600 -0.002577497200
C  -1.230253681400 -1.553071685200 -0.084299228600
C  -2.021435998300 -1.526209840700 -1.224619472200
C  -3.134787785500 -0.710465627800 -1.297435226200
C  -3.468763238200  0.098981255200 -0.218056518800
N  -4.581846364100  0.897438299100 -0.321975352000
C  -5.282652338400  1.701065266500  0.207899688400
O  -6.073694902800  2.476057311700  0.546553031600
C  -2.680498724400  0.084975519400  0.931153113200
C  -1.572915706700 -0.735626567500  0.987803746500
C   1.567638803400 -0.726117648500 -0.985674162700
C   2.675451036000  0.094047662700 -0.927432521900
H   3.761402694000 -0.710428411900  2.174324307200
H   1.779230559000 -2.170944736200  2.055913696000
H   0.058433977900 -3.056457871800 -0.886664495400
H  -0.057740878700 -3.058561817600  0.879976911700
H  -1.769229849800 -2.154027086400 -2.067217719300
H  -3.750781892300 -0.692421148900 -2.182945547900
H  -2.943609239700  0.716629811900  1.766859046600
H  -0.960209384700 -0.742612630800  1.877475508100
H   0.950329509800 -0.725172817000 -1.872181069100
H   2.934211927200  0.733133578500 -1.758835180200
O   3.584262697644  1.483041604723 -2.291948924639
C   2.695209192405  1.367674189737 -3.385767546262
C   3.144994186411  0.318124256917 -4.392229012938
C   2.139379270847  0.049938622804 -5.501418913021
C   2.655110417871 -1.011367391822 -6.460591941607
O   2.978391972706 -2.233189882679 -5.809425717390
C   1.838103104584 -2.998850432218 -5.415344957408
C   1.791779128805 -3.276685406846 -3.918486320329
C   2.993002649508 -4.083031640460 -3.427375697618
C   4.301773790421 -3.312096376183 -3.493725317279
O   5.409757629638 -4.083033995699 -3.048420236669
C   6.553389777605 -3.314679265284 -2.691358150067
C   7.205478183652 -2.563314726081 -3.856926162535
C   6.620524840401 -1.176617762320 -4.137266306528
C   6.909445995785 -0.159426323859 -3.041491829453
O   6.332625396220  1.115744167857 -3.324679322709
C   6.947269746721  2.168984221975 -2.586330346915
C   6.308795984203  3.520285786396 -2.864930748163
C   6.988430177887  4.661059740524 -2.114147473387
C   6.467785721619  6.028654920719 -2.533056819247
O   7.238409019460  7.094535729164 -1.987576469443
C   6.627239242041  8.364454663094 -2.195577002626
C   7.535204792683  9.512425149911 -1.782345346419
C   6.861178165828  10.876204393880 -1.877007330625
C   7.785945325062  11.998484462697 -1.429969648825
O   8.934085619325  12.098254409957 -2.263360483893
C   9.978475372305  12.878372242424 -1.695330893826
C   10.744443036867  12.123869908098 -0.618409643217
C   11.210478184416  10.771125341291 -1.135851482419
C   11.840904460120  9.885588794101 -0.073907737090
O   12.083180884892  8.569331012611 -0.563538095482
C   12.597216731179  7.701956855394  0.442745369935
C   12.465533761756  6.235907242973  0.060102423207
C   13.033759944395  5.295775606802  1.119710827299
C   14.554071721819  5.283325484566  1.101908757782
O   15.050068016835  4.787017178772 -0.134683523090
C   16.473913136936  4.777504960556 -0.195203159849
C   16.965876295874  4.261806323110 -1.537537768606
C   18.485851307557  4.142761792657 -1.643645603319
C   19.074403434124  3.025637947613 -0.796108973567
O   20.498210961171  2.977142265574 -0.865955074037
C   21.028839962167  1.817310268820 -0.228216439758
C   22.486464122315  1.991762767261  0.173732238966
C   23.388464505827  2.273312878574 -1.021243991668
C   23.637226479119  1.040693678579 -1.880507162327
O   22.430425068492  0.423797740667 -2.313721660198
C   22.633792976058 -0.631564072653 -3.255011285658
C   21.669466243628 -0.541892856964 -4.428437343186
C   21.831037800043  0.759357800690 -5.211291208858
C   21.349803539566  1.985399687460 -4.450163395638
O   21.634359473848  3.194453857082 -5.144165258892
C   21.077044110961  4.329872192918 -4.492624218290
C   21.422897360444  5.627874950813 -5.204985279458
C   20.828463330315  6.866761624477 -4.535227592971
C   19.309364489168  6.813765665869 -4.434633450311
O   18.724932439128  8.040226607270 -4.006598491295
C   18.578965406080  8.993860013325 -5.057004440996
C   17.174564204514  9.015546694895 -5.647401066222
C   16.743905685105  7.668626367527 -6.212302689768
C   15.356262452075  7.686720122403 -6.837145133905
O   14.949613737154  6.404381029194 -7.318055959885
C   13.992179697227  5.767659796113 -6.485553401729
C   14.562636975200  5.328444161401 -5.147549504783
C   15.714864411908  4.335016619749 -5.310683973646
C   15.242490523683  2.914271898894 -5.586431564308
O   16.294679290714  1.959974514048 -5.667705944740
C   17.108024357758  1.918257705706 -4.500381727641
C   17.679075673987  0.534809081308 -4.238340796235
C   16.590650335048 -0.518333972534 -4.085789720629
C   15.614276921246 -0.181070542141 -2.966908454517
O   16.282665063867  0.118793304674 -1.748243000167
C   15.399235776817  0.644972895749 -0.762231943989
C   16.118410168308  0.961091987679  0.538157218972
C   15.242235140437  1.666117457982  1.568402559632
C   14.131188390070  0.782180952753  2.113965384683
O   13.222836340104  0.327303381751  1.123702663303
C   12.377075102376  1.356858426059  0.622970619671
C   11.280665416831  0.801999928004 -0.273732574530
C   10.350359102692  1.878759755220 -0.831077434952
C   11.032663403851  2.808691288653 -1.823619900768
O   10.147833674562  3.799823394729 -2.339134350135
C   10.814576487770  4.694088630425 -3.225040736068
C   9.924269194711  5.837173646316 -3.694303687987
C   10.642646558828  6.804472565600 -4.632396757194
C   11.742248492729  7.597703959388 -3.941648820152
O   12.513226322349  8.370223722375 -4.856675860712
C   13.205189392983  9.439940900006 -4.228404443914
C   14.106119511738  8.994731533448 -3.085882081839
C   14.899643782393  10.135945467819 -2.460728251556
C   15.809451924795  9.654734094861 -1.343146162533
O   16.526567608009  10.724578879129 -0.741912731237
C   17.244737848090  10.332367221895  0.416396292891
C   18.326430270484  9.304384769775  0.127086746290
C   19.254366109286  9.759605268799 -0.986552736680
C   20.329856417825  8.729172209481 -1.286005571360
O   21.144582883197  8.476298043048 -0.147680961249
C   22.243519519285  7.618836818609 -0.422900654421
C   21.849212809202  6.159427375126 -0.589800336114
C   21.296842260919  5.542030497812  0.691625692636
C   20.061377054958  6.239169782696  1.239608174099
O   19.441610351387  5.475259779189  2.268751854859
C   18.320192429915  6.131790920228  2.852967462419
C   17.487875865276  5.172290506966  3.690064456539
C   16.247308261361  5.813362637827  4.297846382932
C   15.408808327227  4.790521292152  5.047925933892
O   16.121988177257  4.243381290939  6.151577408283
C   15.636337991332  2.969239347427  6.561215775604
C   16.233682542585  1.826533469793  5.752692076457
C   15.784575223226  0.454632211111  6.238226218043
C   16.447737547309 -0.668931820717  5.456860646950
O   16.110796959464 -0.628454752440  4.077191946340
C   16.808233988334 -1.603792925502  3.308603743103
C   18.239028280847 -1.196858660838  2.986886888426
C   18.916152400536 -2.146246679580  2.002839564561
C   20.342209713938 -1.734040290059  1.674616003294
O   20.959777028301 -2.630283498615  0.757686179223
C   22.219250039938 -2.166922605941  0.288001151121
C   23.343844825415 -2.321001461731  1.304922012905
C   24.643881118307 -1.642985951738  0.873939813774
C   25.213925519158 -2.175550384135 -0.432769489773
O   26.333106630513 -1.409814005370 -0.868265956515
C   26.840793086006 -1.844798239658 -2.122105360361
C   27.961507919899 -0.951754712355 -2.637687790999
C   27.510962776373  0.490820908153 -2.842838189038
C   27.372492880895  1.234454938659 -1.521860293191
O   28.623160590431  1.380583334883 -0.878312520438
H   4.509416206066  1.366630078879 -2.611865577602
H   1.709063229222  1.119053524043 -2.976866135492
H   2.595214078764  2.351518905411 -3.860408611542
H   4.105716977045  0.618714958900 -4.825540883157
H   3.350279953272 -0.614663546104 -3.859827140637
H   1.918115596609  0.980640840660 -6.038721234390
H   1.188049740125 -0.271849264346 -5.063289698148
H   1.943176869608 -1.224241697106 -7.266565252089
H   3.576687481518 -0.666506583819 -6.943361292827
H   1.885232227171 -3.940592983166 -5.974671226497
H   0.928426432339 -2.487114759679 -5.751402113691
H   0.860563826122 -3.802885825436 -3.670345753296
H   1.746351676083 -2.326693991060 -3.375207663401
H   2.837326113497 -4.416590835114 -2.394011429855
H   3.090855965011 -5.002329612281 -4.015482280520
H   4.240123977506 -2.410474760361 -2.875563075461
H   4.506164506262 -3.007218225018 -4.525201403324
H   6.272445310192 -2.637855249566 -1.878493214539
H   7.257953393090 -4.034778124944 -2.256229760379
H   7.134149903592 -3.194657150497 -4.750849208799
H   8.280797370303 -2.449008914429 -3.668676469754
H   5.541630002179 -1.236279011746 -4.292111463156
H   7.013614206889 -0.783490500121 -5.083084570040
H   6.515793156472 -0.489092050895 -2.074528942845
H   7.991114752687 -0.035944726211 -2.918914386914
H   8.007690776278  2.193458129160 -2.860226820384
H   6.889567637372  1.922957270665 -1.520344888051
H   5.242715528103  3.490008249266 -2.614452074009
H   6.344234545183  3.710813771304 -3.943622886796
H   8.069297930598  4.617842300018 -2.279202344089
H   6.868530734600  4.533861480614 -1.032332308663
H   6.490653051236  6.131335206213 -3.623688810354
H   5.424743595248  6.154961729868 -2.222110347170
H   6.353961808457  8.450093989075 -3.253163074326
H   5.695570904130  8.384085019839 -1.619425149221
H   8.437658918100  9.499125630175 -2.402981117704
H   7.887065482700  9.339616584391 -0.759038364674
H   6.547019747947  11.057689707065 -2.910950275193
H   5.940853270113  10.877036270750 -1.280073095482
H   8.112316064974  11.826568734944 -0.399668070995
H   7.278833963573  12.970479191810 -1.449422071927
H   9.553800352936  13.818051301994 -1.323359738387
H   10.648512581762  13.139784552596 -2.522517291180
H   11.601185816518  12.710300598182 -0.264022338460
H   10.109438708539  11.977041996702  0.261851963746
H   10.359492818723  10.239589974944 -1.573362119231
H   11.909363875856  10.911521686308 -1.964987621497
H   12.788206628986  10.305734463231  0.281603263228
H   11.175914080062  9.805394067741  0.793008652465
H   12.058903467704  7.895203031853  1.377273922096
H   13.642363861412  7.975006003542  0.618115998270
H   11.407557836864  6.016880816046 -0.131105466097
H   12.978283782234  6.063949685493 -0.892659853372
H   12.675292160884  4.275078785934  0.945615267889
H   12.658553412606  5.579838917387  2.110475259294
H   14.954844150810  6.292116481619  1.243487597951
H   14.957314833044  4.658791655877  1.906106326886
H   16.832480675873  5.797023983057 -0.019042041341
H   16.845524334708  4.156870484701  0.625804004674
H   16.577705034077  4.926665246997 -2.317943655929
H   16.505018648842  3.287611893073 -1.727639566686
H   18.778887174235  3.970018535888 -2.684078368687
H   18.950739785162  5.093205975090 -1.365503738274
H   18.802607046781  3.152438092630  0.257227760586
H   18.687470189548  2.053635634996 -1.121941241137
H   20.914243970662  0.986293560023 -0.933183880863
H   20.407524999230  1.591468732301  0.646529089195
H   22.553809818421  2.815273948764  0.894970165515
H   22.845757389436  1.105205077323  0.708609627658
H   22.920489534092  3.052846443132 -1.632878059677
H   24.347973330515  2.691008925372 -0.688354263139
H   24.206484144386  0.287910966651 -1.327181984091
H   24.225008752408  1.300852979336 -2.768568298981
H   23.669270059086 -0.597419375928 -3.611968144730
H   22.518814396033 -1.578276338965 -2.715128221874
H   20.642384187983 -0.614702584047 -4.054158953816
H   21.809337695998 -1.405502679679 -5.091765232084
H   21.294671263168  0.708200040692 -6.166927812528
H   22.884257537514  0.899937146557 -5.479031063540
H   21.828898221935  2.049184196450 -3.468839329979
H   20.271098025845  1.931811761637 -4.270684060663
H   21.433152456482  4.344764004399 -3.456539270804
H   19.992764581111  4.187127928059 -4.464128296150
H   21.071777403428  5.561537617991 -6.241131418259
H   22.513743472609  5.713411613299 -5.276439961893
H   21.254368076633  6.991681611370 -3.534511102260
H   21.124799354046  7.768206155074 -5.083648099707
H   18.993541835954  6.048007568928 -3.719521851333
H   18.877197813614  6.528734352066 -5.397897210838
H   18.841630637460  9.972120344463 -4.636207226630
H   19.321184809750  8.782281627704 -5.834013104129
H   16.466118727657  9.319726298599 -4.870308528403
H   17.101472290789  9.783290611336 -6.427514670606
H   17.465529510662  7.326847817063 -6.962723906173
H   16.773536886432  6.918450117216 -5.416925939605
H   14.607327123109  8.053164571400 -6.127417642470
H   15.329954100654  8.373643186373 -7.690863413042
H   13.148425471275  6.457172672322 -6.365781285599
H   13.614854364790  4.904842330054 -7.045010790595
H   14.898237356741  6.213298894755 -4.595970056519
H   13.779511235105  4.882912963141 -4.521973286721
H   16.341180489913  4.337851989192 -4.412935316776
H   16.374459904377  4.659678855934 -6.123241361778
H   14.696078507361  2.864060339676 -6.534486195003
H   14.545477510211  2.578373856318 -4.810674985912
H   17.902286761141  2.663159531205 -4.625903002328
H   16.500433928484  2.235444605141 -3.647638979244
H   18.352631080335  0.262548371916 -5.060056085621
H   18.295076087645  0.553089466005 -3.330275103079
H   16.049183201454 -0.628132259252 -5.033690068281
H   17.047646694383 -1.494847964030 -3.882616519945
H   15.004611624791  0.687533531222 -3.237828924920
H   14.919414480697 -1.007666544154 -2.776445900627
H   14.598672001559 -0.084467365493 -0.595100773067
H   14.935214012806  1.548206713295 -1.172843468328
H   16.521309711342  0.033580502256  0.955971207772
H   16.995842076725  1.574523855948  0.308080398545
H   15.863915413454  2.029303946551  2.396556724121
H   14.807625608927  2.561222105971  1.113639329521
H   13.555290851092  1.289706315009  2.896921229083
H   14.553446995622 -0.115849375465  2.577875700538
H   11.940682219436  1.890358114007  1.474394309982
H   12.997647460453  2.072411775379  0.076483046403
H   11.739816630431  0.243487047469 -1.097158916305
H   10.709947592101  0.057733599672  0.294884666178
H   9.931990528116  2.473498277216 -0.011391689339
H   9.487063836759  1.414134655500 -1.319934249804
H   11.436153481478  2.240865038673 -2.669356583385
H   11.876919264107  3.324271558437 -1.354227811814
H   11.696723486897  5.079493973976 -2.705033241381
H   11.177995629260  4.113195383154 -4.080057566167
H   9.541668898647  6.380480425323 -2.822428157789
H   9.041676566939  5.415350002658 -4.189438450920
H   9.932498210070  7.506549159743 -5.086037665391
H   11.072075619714  6.247838773445 -5.471906896239
H   12.434427432562  6.929477898768 -3.420516520882
H   11.312969141055  8.265807221191 -3.185979810756
H   12.458354922505  10.165201723691 -3.890800466594
H   13.788774982186  9.946995807312 -5.004557117493
H   14.792393220478  8.220504647861 -3.444728446981
H   13.507957132104  8.507793078499 -2.308523565158
H   15.497731397115  10.648999516763 -3.221653963676
H   14.221768903832  10.901823665657 -2.069134526503
H   16.528181256674  8.924837461307 -1.730364016473
H   15.227745982938  9.151633748038 -0.564042542178
H   17.689054901715  11.247687257745  0.824022315634
H   16.525944950282  9.972700167647  1.162205523107
H   17.870519803631  8.346248441841 -0.145894997865
H   18.911179440464  9.098884952917  1.031949921892
H   19.728106653695  10.705530262830 -0.700587731942
H   18.670190073612  9.980819359200 -1.888413556890
H   19.869724678835  7.786079814854 -1.596998320110
H   20.977555200187  9.063451941074 -2.104715999554
H   22.941521871855  7.726442306681  0.415035229067
H   22.761402943731  8.005061162463 -1.308829813257
H   22.713068112317  5.578516877037 -0.939056750808
H   21.103666346477  6.069919108849 -1.385350340871
H   22.070796954587  5.524768932479  1.467372782802
H   21.039056686392  4.491752190432  0.518639528974
H   20.316294082599  7.226068576110  1.641331505345
H   19.322972183005  6.393532838061  0.447136900377
H   17.712918576210  6.567375729530  2.052599607930
H   18.692605535165  6.963720726382  3.460668411125
H   18.110660905043  4.743187773603  4.483293282959
H   17.198788216614  4.317482436050  3.068782530802
H   16.546657705291  6.612059163180  4.985764650872
H   15.654430427494  6.302966853185  3.516604916532
H   14.484554274783  5.232337984335  5.438864764550
H   15.115998439263  3.974955634117  4.378219025677
H   15.893180649959  2.858939785102  7.620918264823
H   14.542043219556  2.971959379460  6.506058593838
H   15.982261919573  1.941384401591  4.693866004036
H   17.326728027520  1.895822050093  5.791967067027
H   14.696240624514  0.370533474916  6.140749080663
H   15.997207286595  0.352768363503  7.309644246916
H   16.151269375865 -1.650986208645  5.843932001712
H   17.536345321562 -0.599674949352  5.547549836659
H   16.775149252917 -2.561851199728  3.839037281897
H   16.238135620667 -1.750888254473  2.384697645209
H   18.829262710440 -1.137398935126  3.907475407137
H   18.241712969011 -0.178228197074  2.582880531668
H   18.917514972363 -3.166180136333  2.403352951627
H   18.336353797153 -2.203842347194  1.074514558283
H   20.947333254285 -1.695892713888  2.585781595467
H   20.355213993175 -0.730289111481  1.237453391742
H   22.107036647704 -1.124365485870 -0.027521450672
H   22.439668004997 -2.740116051606 -0.618847463549
H   23.517111730584 -3.387413030845  1.488362753993
H   23.019808493337 -1.913849500546  2.268944948084
H   25.406628808448 -1.734760017371  1.656586491389
H   24.477849742547 -0.565853257437  0.769581061200
H   24.461726761975 -2.145157691602 -1.226906015119
H   25.527315567667 -3.219919735044 -0.327042212740
H   26.009077581058 -1.857722967551 -2.835183014713
H   27.180017686472 -2.880481014362 -2.001930795499
H   28.789337167196 -0.962419995494 -1.919319781284
H   28.363942694411 -1.364154777772 -3.572394444815
H   28.238525409493  1.028789988520 -3.463124655126
H   26.567121607758  0.507418499727 -3.401102655397
H   26.700039853275  0.685414924881 -0.850946969671
H   26.939457800208  2.232012474567 -1.674336505430
H   28.520015431302  1.802426983814  0.006148009743
