369
pair_id=pair_19e6c3e0a0de52025d7a start=1 nco_site=1 oh_site=1 attack_angle_deg=105.000000
O   6.618264355100  0.143538449800 -1.688772552200
C   5.816657291800  0.056693374400 -0.854090093000
N   5.168305460200 -0.077203069200  0.131054582300
C   3.854011754200 -0.052937900900  0.673130753600
C   3.208913872000  1.324955326500  0.505592565300
C   1.816479531100  1.330099716500  1.127972203900
C   0.915975883400  0.265277561500  0.494741769900
C   1.575300343600 -1.106616265900  0.646848687500
C   2.969563288100 -1.121854323200  0.026592232800
C  -0.471566668400  0.318794788400  1.144508880200
C  -1.531720426600 -0.614503699000  0.548593741600
C  -2.815889084600 -0.520079738200  1.377955627300
C  -3.901240110600 -1.443307734100  0.834788234600
C  -4.215431931400 -1.131031945700 -0.633160601400
C  -2.931460693800 -1.192021334500 -1.468816570500
C  -1.850234206100 -0.273002050300 -0.907919417400
N  -4.855865099800  0.132195613900 -0.765308668800
C  -4.715970678600  1.296887398100 -0.579600605500
O  -4.781695726700  2.452432031500 -0.482541701300
H   3.969545924300 -0.273189232200  1.741047915900
H   3.836149805100  2.083749329600  0.977052012800
H   3.142337409400  1.557949739500 -0.559917029900
H   1.898918572600  1.140301456600  2.200766512800
H   1.366995500400  2.316357678000  0.998420659100
H   0.822792117200  0.492510003800 -0.571700099600
H   1.645879490100 -1.356204628000  1.708123695400
H   0.969045823200 -1.872128855900  0.161264418100
H   2.901208685400 -0.921631752800 -1.045633449400
H   3.428518868200 -2.103936366600  0.155965136700
H  -0.843348377200  1.344547930400  1.077407088700
H  -0.362537387200  0.081373795700  2.206152281500
H  -1.171999744600 -1.647583393000  0.596726238500
H  -2.605958818300 -0.783409642800  2.416616017800
H  -3.176915567100  0.511493151300  1.366280192100
H  -4.810035213800 -1.341777785600  1.430961935200
H  -3.567918939900 -2.481073930500  0.896756635300
H  -4.936516961100 -1.862698729600 -1.016941204600
H  -2.574708747800 -2.223980911300 -1.464940239600
H  -3.156569269900 -0.914536712900 -2.500403691300
H  -0.955847295700 -0.371101252100 -1.524329068000
H  -2.184966647800  0.765627050600 -0.969067221100
O   3.465896388350  0.544692575450 -2.089314750537
C   2.234557483138  0.800308704289 -2.736330861478
C   1.480212976283 -0.477331898752 -3.076073618071
C   0.082334373700 -0.245077096095 -3.628776292461
C  -0.608634214192 -1.564131718551 -3.937028275397
O  -0.683243663552 -2.424880798795 -2.807903364083
C  -1.654664152149 -2.026132370136 -1.838812888303
C  -1.057646202729 -1.778128739958 -0.459687175851
C  -0.400305310644 -3.022693068305  0.134690164810
C   0.858029230722 -3.448728927877 -0.604710255386
O   1.446335532186 -4.616705758381 -0.047937918580
C   2.808956384386 -4.815710559209 -0.407685493553
C   3.041429033140 -5.087227053486 -1.897837167941
C   3.213782172652 -3.835072097150 -2.761603247409
C   4.502168196054 -3.073118912522 -2.481666897048
O   4.620973316494 -1.901148925496 -3.288728627172
C   5.966123583843 -1.439137868387 -3.385568911229
C   6.084517110607 -0.172377894856 -4.217785823631
C   7.525719961398  0.305228224024 -4.365332817515
C   7.660648015721  1.462699087612 -5.344581451361
O   9.019392819563  1.772232840653 -5.637006468706
C   9.150806430867  2.984873452821 -6.373022790450
C   10.577577951952  3.217074184825 -6.845679037764
C   10.773026059280  4.566069255975 -7.527719320004
C   12.215440981810  4.778518774205 -7.962292598153
O   12.621456942610  3.816943788931 -8.928338688633
C   14.031194854351  3.751580255699 -9.102574254976
C   14.720186825665  3.002784747183 -7.971055379500
C   14.072548933865  1.643735209159 -7.751050395381
C   14.593494857771  0.899395307612 -6.532891851069
O   13.826188494656 -0.271178901419 -6.264624694178
C   14.248286374111 -0.936721907644 -5.078006356350
C   13.203275601818 -1.915493282037 -4.565154937655
C   13.652307411217 -2.652918535002 -3.306555363355
C   14.675370608703 -3.732214273926 -3.623229046640
O   14.119778145164 -4.737930556571 -4.460693375112
C   15.056414779381 -5.759015854947 -4.794137018998
C   14.433492429536 -6.802919174132 -5.706314985483
C   15.355680980188 -7.975988556797 -6.036816134437
C   15.617721931150 -8.901219169999 -4.858698787973
O   16.529375123971 -9.950534141157 -5.178518628393
C   16.621534447615 -10.919316525709 -4.136186956856
C   17.914912604320 -11.719162349639 -4.200094769308
C   18.060160147305 -12.484362713575 -5.509375068978
C   17.149809850661 -13.702768943288 -5.588838298216
O   15.783015422413 -13.379648315536 -5.360647380558
C   14.890937485217 -14.470918896109 -5.594096937822
C   13.673062374591 -14.048201316662 -6.402172274181
C   14.052033021251 -13.510132667388 -7.780244186137
C   14.749529242152 -12.159192218620 -7.729849788256
O   15.210717153357 -11.744632291285 -9.010423264564
C   15.752864354196 -10.429457725867 -8.984476901673
C   16.292426447259 -10.003989441748 -10.340844623969
C   16.872083274881 -8.589527785154 -10.348816397855
C   15.858740579329 -7.532265907784 -9.929384703328
O   16.314101589108 -6.197493461695 -10.129409841672
C   16.165283684828 -5.744853991592 -11.473674119454
C   14.912407018428 -4.902938861051 -11.680701156220
C   13.630670124356 -5.641870169353 -11.320276366719
C   12.369614751878 -4.823269457598 -11.556795770560
O   11.180988018161 -5.513953283364 -11.168010109066
C   10.627315808271 -5.041309913451 -9.949318307307
C   11.480366114937 -5.374943399653 -8.737055885555
C   11.670018525960 -6.883275591748 -8.563547492013
C   10.470808284206 -7.564639249202 -7.919088223911
O   10.654568539654 -8.955110579194 -7.679898186301
C   11.790926689288 -9.241860641002 -6.872197204613
C   11.601313549829 -10.486997606457 -6.022270180425
C   10.392151205137 -10.379066546685 -5.103940636370
C   10.476627800401 -9.172944909490 -4.178153806986
O   11.716962723854 -9.118541162027 -3.485033301319
C   11.894018916607 -7.888163549325 -2.789079204446
C   13.219613919760 -7.836841956031 -2.048593524310
C   13.516872357425 -6.481535216144 -1.415403096992
C   12.582458255360 -6.141083943065 -0.264590062926
O   11.215906107598 -6.068740725248 -0.638674271249
C   10.911805553125 -4.928510786246 -1.434555404961
C   9.413371614109 -4.765407490274 -1.639864477234
C   9.046697140457 -3.549772737117 -2.490333074163
C   9.481360377825 -3.678304492871 -3.942916917025
O   9.123085239024 -2.540013092972 -4.721988969450
C   9.583699843690 -2.652769838541 -6.065196517698
C   9.324071317682 -1.397858372731 -6.888171844869
C   9.830781851075 -1.512470379134 -8.324089797385
C   11.348329715734 -1.575164997201 -8.416777622861
O   11.802217898371 -1.849272378370 -9.738639470475
C   13.151917320556 -1.459953932185 -9.949768155449
C   14.126798835203 -2.081466121663 -8.960539952492
C   15.581225315056 -1.716951230527 -9.233742866969
C   16.530699982777 -2.375139273564 -8.247035553473
O   17.883700458542 -2.010588287840 -8.485356127138
C   18.769252900880 -2.464673553212 -7.474969212721
C   18.827762787906 -3.980022530311 -7.371043744180
C   19.122442622732 -4.626923397973 -8.713864128319
C   19.170215718712 -6.142247148899 -8.615602462974
O   20.183433160428 -6.577279204908 -7.716911747846
C   20.349116507673 -7.988247236861 -7.697791017856
C   19.239416583420 -8.720897500534 -6.959550624525
C   19.204076711186 -8.399869718408 -5.468230051871
C   19.002986161618 -6.926381691526 -5.150334026154
O   18.715729468432 -6.722208220524 -3.770985353076
C   18.590263752379 -5.345891447529 -3.424676727226
C   17.957634649458 -5.173142271723 -2.052065556943
C   17.754934665300 -3.717190421015 -1.653948423751
C   17.040453962723 -3.605179110149 -0.316459477024
O   17.814333604695 -4.172750886712  0.734733575909
C   17.035414376039 -4.565122850500  1.860089726001
C   16.435859834692 -5.955053021518  1.702177473738
C   15.670541699708 -6.417437423120  2.935077578345
C   15.139857516234 -7.833635503861  2.775484812508
O   14.218788500317 -7.938472260194  1.698779560976
C   13.794713991121 -9.277322010111  1.461982295314
C   14.816557267637 -10.097654418224  0.687927648491
C   14.280857569776 -11.462560020592  0.265740072243
C   15.298832199181 -12.277820152310 -0.515517149395
O   14.784534373032 -13.547925537500 -0.899875882161
C   15.642152329392 -14.250255832258 -1.790270854923
C   16.855495097474 -14.869692685116 -1.107131720544
C   17.871723840579 -15.448260880325 -2.091043828293
C   17.311810354213 -16.548577395215 -2.980911881669
O   18.247482271000 -16.943515454422 -3.979469705657
C   17.722669994551 -17.921493706815 -4.866713011713
C   18.683863001578 -18.254711162379 -6.000039025664
C   19.015712871306 -17.039839702138 -6.860309350682
C   19.986918569013 -16.098894816996 -6.161359924427
O   21.248909920013 -16.707880724665 -5.971120712020
H   3.872755187018 -0.266456001519 -2.474426716549
H   1.643293166767  1.436671376051 -2.067791021217
H   2.429804765920  1.394214175729 -3.637656761318
H   2.068371848278 -1.068019411262 -3.787592859760
H   1.413085611826 -1.095933421217 -2.176900020530
H   0.134939579746  0.382045612034 -4.527557588247
H  -0.507876081720  0.326294984178 -2.903712092916
H  -1.620851492599 -1.420438661385 -4.332662337148
H  -0.049857364218 -2.111288453898 -4.704939368241
H  -2.397708386509 -2.830856703949 -1.791377942237
H  -2.185076055619 -1.139449654474 -2.205931987868
H  -1.837769649332 -1.406650058754  0.217832978059
H  -0.317455644323 -0.973424665180 -0.525019647742
H  -0.145917363093 -2.858426802195  1.189034508965
H  -1.111943694661 -3.855832903696  0.136176866332
H   1.600773144902 -2.644651073576 -0.579469872475
H   0.623075123148 -3.665617714394 -1.651813397144
H   3.386154751582 -3.954498291296 -0.057078277519
H   3.142667273885 -5.669844143441  0.195126113816
H   2.205242248223 -5.692913163392 -2.267587610866
H   3.932282347678 -5.715676746583 -2.025298824184
H   2.365959336970 -3.159085218206 -2.635950002531
H   3.197545411231 -4.103133574619 -3.825332486360
H   4.561724815380 -2.757074075193 -1.435135510300
H   5.368220348085 -3.717469526895 -2.668873172997
H   6.561947598707 -2.239759923202 -3.837353239080
H   6.349513092857 -1.277029165765 -2.372199755583
H   5.469745789169  0.622132411366 -3.780757872599
H   5.650680440383 -0.358945918006 -5.206781097075
H   8.156684011227 -0.525455446922 -4.695839947546
H   7.936191845114  0.593730745180 -3.391085183483
H   7.166664238455  1.223694980947 -6.292949186268
H   7.173733279440  2.360681489508 -4.948198251167
H   8.462737930148  2.951127734733 -7.225035650530
H   8.821676417742  3.804947244982 -5.725338754191
H   10.867070612512  2.409812980267 -7.527083787824
H   11.256601893743  3.128941004759 -5.990117845661
H   10.118757221775  4.630657985884 -8.404321297692
H   10.452653011707  5.371302796425 -6.855194865057
H   12.881120118537  4.710719213234 -7.096342989310
H   12.361258779637  5.771520342188 -8.403879666532
H   14.418573391149  4.769782224776 -9.224683906295
H   14.197304858624  3.233841737803 -10.054350430082
H   15.791408200462  2.884029686360 -8.175705100333
H   14.664609195174  3.585848307632 -7.045529885135
H   12.990745834140  1.772572631481 -7.645104807185
H   14.194823020471  1.025248682026 -8.644438633505
H   15.641232588747  0.607505075336 -6.664564145672
H   14.544980819930  1.543977791539 -5.648387902106
H   14.462510982922 -0.182207655786 -4.312967187500
H   15.193917959374 -1.442511023934 -5.296184020692
H   12.268626907689 -1.369219380900 -4.386653582539
H   12.973180770622 -2.642868086462 -5.351424740770
H   12.790100972575 -3.122625568508 -2.820133966222
H   14.053912864550 -1.937775716831 -2.578290387474
H   15.543551162669 -3.308720205453 -4.138241360320
H   15.043012491085 -4.213416719127 -2.710724310690
H   15.919146348739 -5.289606515643 -5.278256393018
H   15.413133054567 -6.210972076443 -3.863641212923
H   14.109261559590 -6.299287511005 -6.624452860202
H   13.517106910334 -7.174341109948 -5.237415659647
H   14.929840450331 -8.573158402806 -6.849379122345
H   16.307967534975 -7.599615532070 -6.421942089743
H   16.040987884371 -8.345874626644 -4.014952262367
H   14.682949608930 -9.359236589680 -4.516509882600
H   15.750082640990 -11.576255774957 -4.234689119843
H   16.531630461745 -10.399555193954 -3.174947208121
H   18.758598259294 -11.029705078890 -4.074661747589
H   17.978171863133 -12.414562599688 -3.355354117552
H   17.827740899704 -11.803949217735 -6.336289909585
H   19.103300976232 -12.792466150182 -5.660610735738
H   17.435167932180 -14.452086596564 -4.844527426662
H   17.227669465305 -14.179877129786 -6.572773816317
H   15.431865569603 -15.269802870715 -6.113691059872
H   14.601668227869 -14.872102283112 -4.616174088944
H   13.126824632945 -13.276144774069 -5.849147733338
H   12.980102174615 -14.894060080287 -6.500757011930
H   13.166123394426 -13.422591579987 -8.421374584478
H   14.706115066049 -14.227313771316 -8.288719299108
H   15.616088377374 -12.191367230201 -7.063038620162
H   14.077456514875 -11.390169049883 -7.335373302257
H   16.538383598359 -10.393088451836 -8.221493460723
H   14.953014454271 -9.755722212517 -8.663275038008
H   15.483697375871 -10.077880445216 -11.076903110498
H   17.045035594461 -10.731601981449 -10.667229360615
H   17.743901655575 -8.538813041890 -9.688669386393
H   17.257458163136 -8.347744840863 -11.345916962626
H   15.616171256911 -7.626237907443 -8.866443784269
H   14.919223020021 -7.674438303336 -10.470662564824
H   17.067383380162 -5.170216239646 -11.716705369680
H   16.162160991325 -6.612496347018 -12.141943908450
H   14.986502471278 -3.997751058161 -11.069605465931
H   14.856759647896 -4.552210801982 -12.718604612021
H   13.559907604251 -6.574042319001 -11.891882240001
H   13.673578181136 -5.946432832966 -10.270673074080
H   12.413470571804 -3.866488624367 -11.026186802023
H   12.266189378688 -4.578407123770 -12.620156459580
H   10.468983112182 -3.961793037888 -10.055472123991
H   9.635002774432 -5.496193428589 -9.858671814149
H   12.451496767634 -4.878328457934 -8.837625553102
H   11.037830380286 -4.953356886885 -7.826255954814
H   12.562544490338 -7.081284823349 -7.961532320350
H   11.869228699450 -7.347979731850 -9.535703168461
H   9.582436173208 -7.467405099345 -8.552519662621
H   10.221241843606 -7.090931960790 -6.963174576393
H   12.653766205995 -9.340017584427 -7.541047164115
H   11.979677486387 -8.378638914611 -6.227088499399
H   11.496854912264 -11.358514620507 -6.679967134477
H   12.500096280442 -10.664810869448 -5.418162547768
H   9.476443445847 -10.324647672021 -5.705833712643
H   10.304543022351 -11.290912801452 -4.500147781589
H   10.369214086037 -8.243416560626 -4.747365589957
H   9.672984217212 -9.181189034110 -3.432191494350
H   11.056331669565 -7.764270366537 -2.093486768697
H   11.831937129552 -7.075147328779 -3.520447666576
H   13.231106297387 -8.621115578410 -1.285732503480
H   14.017391718014 -8.108118936214 -2.747936171979
H   14.556550980311 -6.456651574278 -1.065147086365
H   13.447905639836 -5.706295713976 -2.184268935311
H   12.855222107843 -5.192883123955  0.213714139893
H   12.646193926903 -6.907155416248  0.515823829611
H   11.328625990311 -4.042727992129 -0.942994085761
H   11.423630887251 -5.036504026487 -2.394840572230
H   9.013617440998 -5.676220774655 -2.099650489504
H   8.932185542544 -4.705459896616 -0.656074347211
H   9.491105229366 -2.644615185613 -2.061588216739
H   7.964572058150 -3.381764695463 -2.460087593838
H   9.027255146872 -4.562183939379 -4.404487055244
H   10.566768520721 -3.804466799868 -4.012860758566
H   10.653835825118 -2.878059213560 -6.030815124556
H   9.090677441047 -3.519656590317 -6.519069282874
H   9.793262539244 -0.537868096864 -6.396228244602
H   8.247642554174 -1.189696934792 -6.882401293881
H   9.474390957584 -0.671269631555 -8.931032239621
H   9.403394670883 -2.405484048094 -8.791951481774
H   11.744756992272 -2.363388405920 -7.769656383412
H   11.790170392310 -0.630930457363 -8.077843510877
H   13.190656698957 -0.366695259080 -9.917734291942
H   13.412236975060 -1.741072403151 -10.976070194038
H   14.010419962565 -3.170280980629 -8.970920142603
H   13.867538289912 -1.776504768064 -7.941238183024
H   15.862408849171 -2.000215005822 -10.253859843171
H   15.715922575357 -0.630813072303 -9.193868567901
H   16.444766952396 -3.464980452118 -8.311225384475
H   16.275230601622 -2.091938168656 -7.220864640570
H   19.756135802623 -2.062560359420 -7.731395623636
H   18.477072670575 -1.999388181368 -6.526077615386
H   17.880297012008 -4.366401195601 -6.979356700938
H   19.587895817838 -4.284694515570 -6.641446669564
H   20.082477536259 -4.257660134449 -9.091961719830
H   18.372371033291 -4.311465270379 -9.449682743145
H   18.208030106824 -6.525857126252 -8.262185987191
H   19.363093784287 -6.593890609144 -9.595581877808
H   21.313904358311 -8.183230793549 -7.216035285172
H   20.445469618527 -8.332429292726 -8.734370850780
H   19.349212819749 -9.803920973513 -7.103383785447
H   18.273366250825 -8.469301647901 -7.406984809309
H   20.124141878438 -8.747248695611 -4.984602807399
H   18.395941703694 -8.959451581858 -4.985272407799
H   19.894416046957 -6.345685716026 -5.412017991758
H   18.169432694954 -6.517769378248 -5.729389311175
H   17.987556991410 -4.845463886382 -4.189804937603
H   19.588147869659 -4.895114891845 -3.458246828682
H   18.570605434019 -5.682068062658 -1.299427736211
H   16.997848965700 -5.701106459702 -2.034037927463
H   18.727112076424 -3.215744716056 -1.589287316144
H   17.199847337128 -3.186051475887 -2.435820613741
H   16.839015824135 -2.560621735376 -0.050746700900
H   16.073422125725 -4.117505983378 -0.358446584173
H   17.700602403427 -4.535586669688  2.730581548271
H   16.260738312722 -3.810515469952  2.036088188946
H   15.777180397883 -5.985149845929  0.828821132641
H   17.238701625334 -6.665420173056  1.474327888276
H   14.833237505926 -5.735685041584  3.122646141382
H   16.315928569897 -6.348192360173  3.819501763599
H   14.629492247290 -8.171637749562  3.685116719031
H   15.966176285805 -8.527200437787  2.590409414338
H   13.550656265213 -9.745964105435  2.421742894902
H   12.852549618087 -9.221077342276  0.905731907560
H   15.725478200426 -10.226835955712  1.285062666683
H   15.136373817986 -9.533936311296 -0.195687446221
H   13.961330684287 -12.030909580661  1.146398026867
H   13.376038394486 -11.341528887673 -0.340827915361
H   16.202050185790 -12.434045264540  0.082515839648
H   15.600903991540 -11.740017353328 -1.420126164596
H   15.941485001437 -13.566538266338 -2.591521095328
H   15.028669586314 -15.025576461286 -2.261467269969
H   16.517404046362 -15.647222720922 -0.412835641601
H   17.341874441056 -14.116206500051 -0.478000425337
H   18.749184894008 -15.835193995838 -1.558984429584
H   18.261098136027 -14.647629973920 -2.728264212352
H   16.403907556698 -16.212681579536 -3.491074618674
H   17.040749630434 -17.430540704240 -2.390347976331
H   16.779874544837 -17.536844092349 -5.271161877440
H   17.481202152407 -18.811982206399 -4.274363808338
H   19.614541714210 -18.650817774151 -5.577659700542
H   18.263458193405 -19.058835897083 -6.618381405486
H   19.470787403192 -17.359941134531 -7.805801635138
H   18.091439605689 -16.515748189132 -7.132003779181
H   19.589892801611 -15.811263693026 -5.179829703138
H   20.127927389250 -15.176424913951 -6.740199456977
H   21.852748005700 -16.120828943268 -5.459641299262
