395
pair_id=pair_d0340fb5d58cddfcd8e1 start=1 nco_site=1 oh_site=1 attack_angle_deg=105.000000
O   6.618264355100  0.143538449800 -1.688772552200
C   5.816657291800  0.056693374400 -0.854090093000
N   5.168305460200 -0.077203069200  0.131054582300
C   3.854011754200 -0.052937900900  0.673130753600
C   3.208913872000  1.324955326500  0.505592565300
C   1.816479531100  1.330099716500  1.127972203900
C   0.915975883400  0.265277561500  0.494741769900
C   1.575300343600 -1.106616265900  0.646848687500
C   2.969563288100 -1.121854323200  0.026592232800
C  -0.471566668400  0.318794788400  1.144508880200
C  -1.531720426600 -0.614503699000  0.548593741600
C  -2.815889084600 -0.520079738200  1.377955627300
C  -3.901240110600 -1.443307734100  0.834788234600
C  -4.215431931400 -1.131031945700 -0.633160601400
C  -2.931460693800 -1.192021334500 -1.468816570500
C  -1.850234206100 -0.273002050300 -0.907919417400
N  -4.855865099800  0.132195613900 -0.765308668800
C  -4.715970678600  1.296887398100 -0.579600605500
O  -4.781695726700  2.452432031500 -0.482541701300
H   3.969545924300 -0.273189232200  1.741047915900
H   3.836149805100  2.083749329600  0.977052012800
H   3.142337409400  1.557949739500 -0.559917029900
H   1.898918572600  1.140301456600  2.200766512800
H   1.366995500400  2.316357678000  0.998420659100
H   0.822792117200  0.492510003800 -0.571700099600
H   1.645879490100 -1.356204628000  1.708123695400
H   0.969045823200 -1.872128855900  0.161264418100
H   2.901208685400 -0.921631752800 -1.045633449400
H   3.428518868200 -2.103936366600  0.155965136700
H  -0.843348377200  1.344547930400  1.077407088700
H  -0.362537387200  0.081373795700  2.206152281500
H  -1.171999744600 -1.647583393000  0.596726238500
H  -2.605958818300 -0.783409642800  2.416616017800
H  -3.176915567100  0.511493151300  1.366280192100
H  -4.810035213800 -1.341777785600  1.430961935200
H  -3.567918939900 -2.481073930500  0.896756635300
H  -4.936516961100 -1.862698729600 -1.016941204600
H  -2.574708747800 -2.223980911300 -1.464940239600
H  -3.156569269900 -0.914536712900 -2.500403691300
H  -0.955847295700 -0.371101252100 -1.524329068000
H  -2.184966647800  0.765627050600 -0.969067221100
O   6.472071590868 -2.176486484055  0.514609953163
C   6.813585766257 -3.340120812663  1.227793153903
C   6.527229078706 -4.631520121101  0.462758156061
C   7.465771975281 -4.898317226696 -0.726184104524
C   7.077045680057 -4.200564382721 -2.031110124054
O   7.333110696102 -2.800607899660 -2.064673613444
C   8.697852037959 -2.486393751844 -2.315158449692
C   8.998153710242 -1.017382272416 -2.057535078817
C   8.148851162600 -0.099834207129 -2.925990312652
C   8.440338462554  1.375057312667 -2.699650221825
O   7.603952990557  2.223719980611 -3.474911587612
C   7.940034695123  2.224426965240 -4.864160289877
C   6.726886441340  2.038801653603 -5.763944436968
C   7.097741329116  2.068916343779 -7.245033367172
C   5.896082958016  2.193093955890 -8.171299025629
O   5.070699494781  1.034484731879 -8.210576825800
C   3.982816590756  1.220750445792 -9.114958962201
C   3.086186776232 -0.000932398724 -9.263659266202
C   1.839122661902  0.308155982689 -10.084360969760
C   0.834418159206 -0.832585383896 -10.101307656883
O   1.360224325400 -2.020637580746 -10.682242276870
C   0.334751134347 -2.939022040456 -11.049453155788
C   0.881519573206 -4.316762367038 -11.394997487352
C   1.455284380359 -5.031361100242 -10.176494949754
C   2.663623878680 -4.323798436492 -9.587554648270
O   3.137754259856 -4.962380324430 -8.408092862003
C   4.198821777405 -4.236672155664 -7.797748134285
C   4.560858681863 -4.796203119806 -6.431496393708
C   5.651719050035 -3.999023501154 -5.724406710091
C   5.267143201839 -2.534082943231 -5.577723773206
O   3.937429770930 -2.370406993967 -5.110965079604
C   3.775914010215 -2.595183995964 -3.718564733158
C   4.496762898136 -1.546044795289 -2.885840104375
C   3.990821255634 -1.413508172468 -1.456161415284
C   4.551982836229 -0.147051907983 -0.827631298193
O   4.290923904038  0.972078785975 -1.666673784033
C   4.892380087123  2.176610608202 -1.208090068626
C   4.639164223599  3.322852974351 -2.174773964092
C   5.249696372496  4.648004284613 -1.730059298699
C   6.769748203225  4.646838191336 -1.761009430047
O   7.299044050968  5.939737564339 -1.491841248506
C   8.721351675554  5.967298364575 -1.491929149590
C   9.237022119856  7.396456314335 -1.535554095279
C   8.742916829962  8.222882522558 -0.357309693762
C   9.029633565095  9.702803193124 -0.562602900864
O   8.381799584792  10.171915270294 -1.739429046761
C   8.816254623230  11.456487108993 -2.171637061587
C   8.284515376160  11.745824329980 -3.567078979773
C   8.696346946150  10.641486540687 -4.532374926933
C   8.022991506625  10.731878539266 -5.891218162012
O   8.326757905356  9.600722801217 -6.696134715699
C   7.700439325705  9.623084798989 -7.970113663559
C   6.176030558212  9.698422310488 -7.908975139864
C   5.497838241869  9.216233883954 -9.188317307540
C   5.557661828223  7.700981301827 -9.301837428487
O   4.789876153102  7.073189176018 -8.274991853008
C   5.284400775334  5.791241284937 -7.900040079842
C   6.144028625085  5.843747681795 -6.645914380262
C   5.394427054431  6.394606300255 -5.436386863438
C   4.059531875281  5.697365999544 -5.208162510766
O   4.195712656586  4.280717128023 -5.139070867974
C   2.976227610803  3.599723446020 -5.429464886460
C   3.137437879212  2.086540836666 -5.389718345032
C   1.934560971653  1.340349899191 -5.952827297476
C   2.088128514293 -0.175051630914 -5.859401996560
O   1.301883272069 -0.860132934142 -6.831202466156
C   1.090071507832 -2.226704866714 -6.500983310453
C  -0.130687784153 -2.391804989424 -5.613999235111
C  -1.352562932890 -1.788226465866 -6.289403726233
C  -2.616998693036 -1.860717018435 -5.451642996542
O  -3.723245578240 -1.264678652567 -6.122484332395
C  -4.961740392950 -1.459674729891 -5.455776034087
C  -5.379028574621 -2.923387975926 -5.394038202876
C  -5.260893140687 -3.590671247287 -6.759400016544
C  -5.405457324004 -5.104733935094 -6.707248499557
O  -5.369456912706 -5.732043066984 -7.982675157985
C  -4.189993888269 -5.436216295394 -8.720817855799
C  -4.064198050071 -6.277248895723 -9.981022119942
C  -2.873003637271 -5.881734707248 -10.850846188650
C  -2.970823128989 -4.442496055208 -11.340516931257
O  -2.811609694617 -3.507262896263 -10.278253383535
C  -3.227456761270 -2.192270810809 -10.634588024734
C  -3.039058453218 -1.206334760606 -9.492526294422
C  -3.448693678394  0.213895756238 -9.859687212388
C  -3.246263157673  1.196801477944 -8.717369017412
O  -3.579338804077  2.536243871468 -9.080976210921
C  -3.617807221498  3.394683390923 -7.949483740896
C  -3.710433566966  4.874608537308 -8.296942374490
C  -4.928633117374  5.224463287448 -9.143824072307
C  -4.751138207616  4.818931027785 -10.597051921247
O  -3.696462664686  5.543251315165 -11.227702872937
C  -3.385519337066  5.057361043554 -12.535989484868
C  -2.076992757532  4.277277957873 -12.570304178773
C  -2.030502353025  3.207241779469 -11.495162981789
C  -0.747932399191  2.389841783648 -11.507438353462
O   0.435343060542  3.167561642479 -11.582596110387
C   0.618541564342  4.063155230924 -10.491024454581
C   1.918371313150  4.840672542289 -10.645320684790
C   2.089246764662  5.972304938334 -9.635922274363
C   1.049148652605  7.078413853277 -9.785264517211
O   1.397031357833  8.289890926663 -9.126241294364
C   1.774727073561  8.092496997474 -7.770991349392
C   1.814501317165  9.385118969494 -6.968845588953
C   2.359845555998  9.173542822648 -5.558075943915
C   1.459477691694  8.300606491446 -4.695168633294
O   2.091711529209  7.885591963565 -3.489533589239
C   1.167792563154  7.287821179745 -2.581018862102
C   1.838350701306  6.301770053498 -1.639143452005
C   0.897070908233  5.767332830471 -0.568028390642
C   1.554121405686  4.669732500593  0.252780963071
O   1.958805810246  3.565871108548 -0.544478612912
C   0.884291063022  2.687117282870 -0.864918717001
C   1.314460607916  1.590813677517 -1.827156733632
C   0.246826522007  0.532092911147 -2.075135770027
C  -0.951966240803  1.093482784745 -2.822683721680
O  -0.564008105458  1.692472728920 -4.051693027359
C  -1.657787752506  1.974407631915 -4.910470668558
C  -2.606930392572  3.022316981275 -4.353639180940
C  -1.898387976984  4.319730093971 -3.976358312128
C  -1.162958539518  4.980641370135 -5.139509154686
O  -0.880912997106  6.352932211181 -4.888632911768
C  -1.971981214506  7.203691150724 -5.230928705757
C  -1.925376260420  7.640820172397 -6.687781450937
C  -3.179147058103  8.373619698131 -7.147624014496
C  -3.014367670710  8.873000154638 -8.573561822656
O  -1.923535315789  9.784885278398 -8.650747698525
C  -1.375307935344  9.915239187118 -9.956197948383
C  -0.161218668348  10.829595718373 -9.929961547709
C  -0.523998090299  12.220218885456 -9.429379986713
C   0.699749619053  13.022562629466 -9.013808843323
O   1.310164287604  12.464874098561 -7.856520238452
C   2.418442167656  13.224058769789 -7.384670106946
C   3.707019277456  12.910697586771 -8.128211496874
C   4.923048598299  13.660558424823 -7.590249789156
C   5.176960060742  13.422359954625 -6.104712905090
O   5.257822180567  12.056821202589 -5.760633289451
H   6.774496166690 -2.298564905154 -0.417020952539
H   6.251405999506 -3.303210904059  2.169751535627
H   7.874723035325 -3.278793291636  1.500614726623
H   6.585616872391 -5.473871448276  1.165857284275
H   5.489037327527 -4.619792320929  0.113463102901
H   8.489652306223 -4.629641310569 -0.448289413789
H   7.499915298673 -5.980883793716 -0.913408732388
H   6.005968160618 -4.333929136456 -2.216288758105
H   7.593245908637 -4.645080178390 -2.890589275939
H   9.328297583482 -3.129825569526 -1.692317920647
H   8.906990045899 -2.744974256791 -3.359147877581
H   10.061716561346 -0.807992906307 -2.225932281280
H   8.814467361868 -0.789958045788 -1.001181720865
H   7.087843264193 -0.280893326465 -2.731044281264
H   8.289629692278 -0.356377373482 -3.981258130696
H   8.282779981951  1.637676276448 -1.647912143256
H   9.485005091867  1.617215872332 -2.924065978548
H   8.433242903035  3.180715994908 -5.074222067318
H   8.686463636659  1.448627150588 -5.065312217531
H   6.000513442801  2.826953285789 -5.538515195067
H   6.219405862799  1.099757348649 -5.516592576696
H   7.665023619916  1.167778916004 -7.503849256291
H   7.784702945059  2.906534954771 -7.421544401683
H   6.220559472732  2.397157825292 -9.198947210787
H   5.267054741036  3.033584533483 -7.861814695141
H   4.390927313333  1.509603927771 -10.090010194112
H   3.400032974186  2.075835643919 -8.754404469641
H   2.796195285289 -0.359250718788 -8.272564212223
H   3.644561773371 -0.829926199711 -9.712323379308
H   2.127860291238  0.554764137150 -11.112445508423
H   1.365886523874  1.213477602130 -9.686414413280
H  -0.064726266364 -0.552250396524 -10.662239833380
H   0.516847841382 -1.078192561409 -9.082053919040
H  -0.203054778954 -2.500489940708 -11.898265042246
H  -0.374430373570 -3.011238301519 -10.216847281236
H   0.096158061545 -4.930389495150 -11.854731708650
H   1.661260464486 -4.207853515932 -12.156996820573
H   1.733875373881 -6.062795183665 -10.424622962451
H   0.684782154399 -5.118487355530 -9.401779586668
H   3.485272161477 -4.283416889809 -10.311131353844
H   2.411020682928 -3.289122890406 -9.332308676117
H   3.879512808338 -3.192478866877 -7.710421843823
H   5.061632838861 -4.256166654452 -8.472534340992
H   4.849255895257 -5.849020608432 -6.536016965108
H   3.655015297314 -4.802407064731 -5.814484492510
H   5.843140309171 -4.431347995035 -4.735501439282
H   6.598458293326 -4.086912070469 -6.271726834140
H   5.956594541495 -1.988490961917 -4.924963813139
H   5.313001021253 -2.025681878608 -6.548128527139
H   4.098942293250 -3.611597644501 -3.472253789609
H   2.698412720708 -2.558584453967 -3.522185699592
H   5.572338512010 -1.744768839269 -2.879437448230
H   4.384343850948 -0.575988948883 -3.385418056348
H   2.896440140071 -1.357495805142 -1.463141987413
H   4.244881502755 -2.302215619479 -0.866167812552
H   5.637281820721 -0.224868156271 -0.703096693663
H   4.120986661567  0.047366602294  0.161193707321
H   5.964963815514  1.996317762553 -1.087035406818
H   4.482036503051  2.405356188805 -0.218193490879
H   5.029678226794  3.050412596376 -3.161803313405
H   3.556604400086  3.429224996958 -2.307951887197
H   4.905004798450  4.903143355628 -0.721833999970
H   4.895374403779  5.464245790803 -2.370229305585
H   7.182171355165  3.946927864355 -1.026905444273
H   7.130885323586  4.334014349252 -2.747408972927
H   9.078968118675  5.390207448341 -2.353072433786
H   9.064906924522  5.453300325682 -0.587568002099
H   10.332504236379  7.421209640387 -1.585459781575
H   8.885075314305  7.866542790892 -2.461203117644
H   9.181624396819  7.856930010094  0.578883377818
H   7.660075815611  8.081014396427 -0.259700762470
H   8.681238938459  10.309916967167  0.280824180776
H   10.106667528958  9.871345167311 -0.668698412363
H   9.911600951081  11.465316401072 -2.171886936625
H   8.478854453531  12.198423789144 -1.438905250157
H   8.622894141640  12.723587780895 -3.930552859324
H   7.190136772902  11.799357020535 -3.529428322027
H   9.784839269365  10.627354728221 -4.657250439099
H   8.449279700072  9.670065049817 -4.088342754270
H   8.325394867641  11.637843134725 -6.427358380362
H   6.937528089320  10.773833431760 -5.762640092107
H   8.022895393048  8.707070087169 -8.475577827929
H   8.119407450901  10.453976014009 -8.548927358581
H   5.823693663759  9.086407386602 -7.072095583498
H   5.873256307212  10.724353797112 -7.671891121205
H   4.444212110775  9.521058904516 -9.200490807821
H   5.962783685725  9.694215861082 -10.059056303858
H   5.169871681358  7.351805222004 -10.266034191123
H   6.591632058941  7.348956980721 -9.231115583788
H   5.823945571204  5.355866811020 -8.749817865279
H   4.411435712332  5.150775980767 -7.737394659366
H   6.513757622487  4.839111219228 -6.413195173918
H   7.036900574463  6.450114819335 -6.841173967226
H   5.232296271784  7.470995753990 -5.561075588824
H   6.015639158873  6.292664438476 -4.537799963022
H   3.576657746390  6.035223096951 -4.283678743852
H   3.365690849408  5.934471944498 -6.021476159204
H   2.643232900039  3.914886823674 -6.424384545875
H   2.215055587953  3.934143096002 -4.715793038348
H   4.025311304590  1.808872960433 -5.966528932701
H   3.346439480783  1.757768594812 -4.366062347169
H   1.787271700507  1.619774783819 -7.001885656226
H   1.017536343522  1.653959468699 -5.444656462331
H   1.825230669966 -0.532905549633 -4.858477219597
H   3.130197152510 -0.469688105735 -6.030993053568
H   0.950814038756 -2.766632772455 -7.444167753602
H   2.001691428834 -2.625659970904 -6.041962143950
H   0.036218377933 -1.896898331802 -4.651217839595
H  -0.305639106036 -3.449377394766 -5.381407066556
H  -1.147652107381 -0.743559410800 -6.549720230155
H  -1.526992699569 -2.292909734434 -7.245945716045
H  -2.851197640946 -2.905283048018 -5.227080210957
H  -2.483903685889 -1.350819287001 -4.492318272596
H  -5.702279371354 -0.877296425924 -6.015899183586
H  -4.893097978973 -1.007663032939 -4.459453495647
H  -6.401693184557 -3.022316221317 -5.009272796986
H  -4.752868612112 -3.459822255668 -4.672379122154
H  -6.000050143452 -3.171338676314 -7.451151629186
H  -4.287656448729 -3.332062173479 -7.189249514994
H  -4.620082600671 -5.553147389498 -6.088627911064
H  -6.359597944730 -5.381894134574 -6.245567915041
H  -3.320406964123 -5.577688373060 -8.069521453631
H  -4.227274712275 -4.375811155066 -8.988071281507
H  -4.990536872628 -6.181113264030 -10.558804903409
H  -4.007961293257 -7.335857725029 -9.700012183579
H  -2.786044611459 -6.565975731986 -11.704947587653
H  -1.946610854609 -5.997230455618 -10.277296449655
H  -3.945070310506 -4.269972303282 -11.810859077119
H  -2.208126076532 -4.218253319648 -12.094871781413
H  -2.656606885398 -1.879137390379 -11.515452938780
H  -4.280631182149 -2.234941124654 -10.933151364357
H  -1.990829554634 -1.218128488815 -9.177530920745
H  -3.605048343292 -1.544674735317 -8.617836386762
H  -2.877958430042  0.543087040580 -10.733604794281
H  -4.497494839356  0.235871452471 -10.176372258070
H  -3.858191186738  0.908982308602 -7.854680164684
H  -2.202623844120  1.189396448856 -8.383120067032
H  -2.718225649997  3.194611620031 -7.357907448410
H  -4.478547299780  3.090809473276 -7.343160930123
H  -2.806696157128  5.181286905253 -8.835232687694
H  -3.721850420690  5.457736223887 -7.367544122049
H  -5.113317721939  6.305499892646 -9.110436812388
H  -5.821861974922  4.752930280587 -8.716042242161
H  -4.528506270094  3.749656372604 -10.664527114307
H  -5.665614194417  4.997382587252 -11.175048644028
H  -3.348070718721  5.925543940985 -13.205095004799
H  -4.218013273489  4.434749625651 -12.883276884870
H  -1.919785766440  3.825744077208 -13.557526855000
H  -1.236762694267  4.966270928541 -12.429626385085
H  -2.155990409797  3.680713742924 -10.515462719649
H  -2.898782846629  2.547242150236 -11.603998830736
H  -0.677426906942  1.746902904142 -10.623457191632
H  -0.727909789980  1.727462853634 -12.380636689078
H  -0.233843624141  4.747419409924 -10.458087157822
H   0.605359425155  3.493122218559 -9.555801274432
H   1.957166777994  5.250558694053 -11.661100366216
H   2.760404966582  4.139978955641 -10.589182010975
H   2.061391926878  5.567254626211 -8.618235945090
H   3.083149878801  6.420340691698 -9.745802865985
H   0.069077704499  6.760201420420 -9.412622170804
H   0.912499685829  7.331217023867 -10.842725586730
H   1.079996472679  7.373040180502 -7.326188485216
H   2.765701529510  7.626960238218 -7.773700484331
H   0.812450853881  9.825976922250 -6.926665242676
H   2.425219356537  10.115017253246 -7.511662296760
H   3.349523629299  8.709474392462 -5.616617038092
H   2.521464865238  10.132381310997 -5.051202348851
H   0.535034084565  8.831249385498 -4.441252020246
H   1.167536450912  7.387793409701 -5.224818292159
H   0.684756794805  8.097642617882 -2.023017160671
H   0.383140294750  6.785050821149 -3.158022767430
H   2.708190113704  6.778404073430 -1.173283003385
H   2.244823195542  5.467118018529 -2.220713892404
H  -0.013140201256  5.384937432738 -1.041872060035
H   0.564636683829  6.588208188287  0.079538799374
H   0.898427318002  4.302358191475  1.050884261441
H   2.458263554493  5.051884507887  0.740289093137
H   0.518212198559  2.252475687676  0.071685346663
H   0.064608993909  3.273748518559 -1.288878468735
H   2.226293940103  1.128636643835 -1.434922528848
H   1.604042544434  2.047024574359 -2.779488485386
H   0.673092025543 -0.290020218027 -2.662700379437
H  -0.067435455580  0.087484443063 -1.122927275572
H  -1.458693345218  1.854669663890 -2.221349418440
H  -1.687922729330  0.309807104381 -3.034441310402
H  -2.174836981913  1.032776962743 -5.128186630757
H  -1.225794486284  2.312619287641 -5.858474008782
H  -3.398176439427  3.235361724875 -5.082475199806
H  -3.128743739442  2.614388542684 -3.479651114521
H  -2.622089155964  5.030985975918 -3.560945051742
H  -1.184720454832  4.136401528623 -3.165727398035
H  -1.745873318791  4.912493370160 -6.062828575207
H  -0.210558383458  4.476539538326 -5.339755893472
H  -1.938271872130  8.072950737367 -4.564411649951
H  -2.910275697894  6.683797625169 -5.009956719751
H  -1.052786274707  8.283362580646 -6.847277090073
H  -1.746689486199  6.771788539388 -7.328993457220
H  -3.363740003362  9.228218962098 -6.487014410748
H  -4.059692633174  7.727229302545 -7.054363296246
H  -2.818623111649  8.034288484186 -9.251190102527
H  -3.911201028973  9.387062227467 -8.938206345580
H  -1.112863567869  8.915272581292 -10.319695231086
H  -2.155743817458  10.313974006955 -10.613176238674
H   0.318999126148  10.886099505199 -10.914522244737
H   0.587351147405  10.394162518642 -9.258779856308
H  -1.183478477467  12.118745247159 -8.559183715093
H  -1.110154924314  12.752745378339 -10.188617581389
H   0.430733653853  14.060277023352 -8.784224494351
H   1.438437191073  13.045804402329 -9.821280612051
H   2.519347026016  12.990370993012 -6.319381233537
H   2.173369627687  14.290145851232 -7.442420348270
H   3.883960788212  11.831616607155 -8.079916050500
H   3.573169663198  13.124394464635 -9.195066537714
H   4.804451842429  14.735149978694 -7.777036129131
H   5.814730986286  13.360701755943 -8.154683212636
H   6.121980953093  13.885092392089 -5.792992803658
H   4.399493099610  13.891509342101 -5.488425400846
H   4.384941384621  11.621807602235 -5.893187876250
