67
pair_id=pair_3ea150d80d5c55174de7 start=4 nco_site=2 oh_site=2 attack_angle_deg=105.000000
O   6.618264355100  0.143538449800 -1.688772552200
C   5.816657291800  0.056693374400 -0.854090093000
N   5.168305460200 -0.077203069200  0.131054582300
C   3.854011754200 -0.052937900900  0.673130753600
C   3.208913872000  1.324955326500  0.505592565300
C   1.816479531100  1.330099716500  1.127972203900
C   0.915975883400  0.265277561500  0.494741769900
C   1.575300343600 -1.106616265900  0.646848687500
C   2.969563288100 -1.121854323200  0.026592232800
C  -0.471566668400  0.318794788400  1.144508880200
C  -1.531720426600 -0.614503699000  0.548593741600
C  -2.815889084600 -0.520079738200  1.377955627300
C  -3.901240110600 -1.443307734100  0.834788234600
C  -4.215431931400 -1.131031945700 -0.633160601400
C  -2.931460693800 -1.192021334500 -1.468816570500
C  -1.850234206100 -0.273002050300 -0.907919417400
N  -4.855865099800  0.132195613900 -0.765308668800
C  -4.715970678600  1.296887398100 -0.579600605500
O  -4.781695726700  2.452432031500 -0.482541701300
H   3.969545924300 -0.273189232200  1.741047915900
H   3.836149805100  2.083749329600  0.977052012800
H   3.142337409400  1.557949739500 -0.559917029900
H   1.898918572600  1.140301456600  2.200766512800
H   1.366995500400  2.316357678000  0.998420659100
H   0.822792117200  0.492510003800 -0.571700099600
H   1.645879490100 -1.356204628000  1.708123695400
H   0.969045823200 -1.872128855900  0.161264418100
H   2.901208685400 -0.921631752800 -1.045633449400
H   3.428518868200 -2.103936366600  0.155965136700
H  -0.843348377200  1.344547930400  1.077407088700
H  -0.362537387200  0.081373795700  2.206152281500
H  -1.171999744600 -1.647583393000  0.596726238500
H  -2.605958818300 -0.783409642800  2.416616017800
H  -3.176915567100  0.511493151300  1.366280192100
H  -4.810035213800 -1.341777785600  1.430961935200
H  -3.567918939900 -2.481073930500  0.896756635300
H  -4.936516961100 -1.862698729600 -1.016941204600
H  -2.574708747800 -2.223980911300 -1.464940239600
H  -3.156569269900 -0.914536712900 -2.500403691300
H  -0.955847295700 -0.371101252100 -1.524329068000
H  -2.184966647800  0.765627050600 -0.969067221100
C  -0.716809000915  2.591960290703 -6.619615289009
C  -1.671603874727  1.484899159941 -6.183749370551
C  -2.165354684503  1.735240314874 -4.759314902650
C  -0.972585148242  1.834209288779 -3.807889865442
C  -0.017834259071  2.941288535842 -4.243786867185
C   0.475957023884  2.690843038030 -5.668181754606
C   1.440857596638  3.794007673615 -6.117980191938
O   1.984604651612  3.565706128801 -7.395815865405
C  -3.130064538743  0.631873666624 -4.309610327963
O  -3.673462044139  0.859735072578 -3.031553621233
H  -0.361123315112  2.405514750855 -7.634462870868
H  -1.245657992278  3.547813233401 -6.625067651033
H  -1.159749749686  0.520454259678 -6.221686983488
H  -2.520491268340  1.438181095387 -6.869428492189
H  -2.706555318269  2.690683708858 -4.741300053682
H  -0.443688844152  0.878382393251 -3.802392319719
H  -1.328296126082  2.020681194236 -2.793054343211
H  -0.529740508103  3.905710338165 -4.205954744920
H   0.831022189018  2.988109744337 -3.558081399663
H   1.016993760152  1.735304917182 -5.686100411363
H   2.244918316309  3.904115150864 -5.374200246155
H   0.912882815179  4.747513126875 -6.194430490501
H   2.436801586963  2.714541679170 -7.389238529994
H  -2.601974592745 -0.321600538470 -4.233568598079
H  -3.934313645943  0.521895197147 -5.053206190318
H  -4.125748435024  1.710862350625 -3.037741108269
