352
pair_id=pair_c331ce60e3e4002a477c start=4 nco_site=2 oh_site=2 attack_angle_deg=105.000000
O  -0.892359844500  1.922011143500  1.551618387200
C  -1.404048441200  1.265858264700  0.741439727900
N  -2.097646827800  0.724591544800 -0.055434653500
C  -2.188583977800 -0.380267317600 -0.939051686600
C  -1.948006681800 -1.723900442000 -0.237227573400
C  -0.600190088900 -1.812992178400  0.478380570900
C   0.590144176500 -1.814376315600 -0.479165993500
C   1.938255299900 -1.732525388000  0.236759994800
C   2.184943254300 -0.390931150000  0.940312561300
N   2.100561577500  0.715338087100  0.057787667700
C   1.411701532000  1.258791172400 -0.741747682600
O   0.904946916700  1.916913100500 -1.553406737200
H  -1.481714308000 -0.239304900100 -1.763952380200
H  -3.200357203700 -0.362292705500 -1.353096596100
H  -2.021952472600 -2.511158111200 -0.989744811800
H  -2.743023821800 -1.878381459700  0.495345010200
H  -0.520339529300 -0.972662132800  1.170725239600
H  -0.579098842200 -2.728618728900  1.073920219300
H   0.513845165600 -0.972072399900 -1.169506146300
H   0.565199503500 -2.728466370800 -1.076911659400
H   2.008388233900 -2.521130983500  0.988226084900
H   2.732711129400 -1.889708449300 -0.495850937800
H   1.477836651300 -0.247147674100  1.764520080100
H   3.196296960900 -0.378477551100  1.355590495500
O  -6.990155645141 -24.745275069948  2.785698816401
C  -8.209103123897 -25.348434103437  3.173682291541
C  -9.417880967235 -24.679559831944  2.534706845526
C  -10.734738934098 -25.393420698051  2.798856208850
C  -11.891277071614 -24.671885516378  2.124935969104
O  -11.706758986758 -24.522817976760  0.723111957533
C  -11.895650505044 -25.730092776075 -0.017564745577
C  -10.669748568505 -26.134484475874 -0.825992700550
C  -10.278124487705 -25.091461754500 -1.871485895615
C  -9.756562628226 -23.798758898043 -1.264429139893
O  -9.412685205432 -22.835072073392 -2.251001812358
C  -8.548178810596 -21.803807599521 -1.787451282725
C  -9.163038650968 -20.886586354174 -0.724921605236
C  -9.008369778294 -21.376987010876  0.717047262371
C  -7.571296807669 -21.350093293947  1.220012038679
O  -7.460309168096 -21.832779058527  2.559292868041
C  -6.259195870674 -21.403999011210  3.196266978218
C  -6.128217031218 -21.947060549267  4.610201756241
C  -4.868150876087 -21.457461926976  5.316933566103
C  -4.831156836685 -21.852489109670  6.786442747009
O  -3.764289759932 -21.226112415012  7.491395124078
C  -3.595340191392 -21.760139320424  8.801264630928
C  -2.585677913153 -20.968194982472  9.617600548878
C  -2.292618721226 -21.589585533370  10.978172746347
C  -1.258856813058 -20.789592864304  11.756566982755
O  -1.718478156461 -19.474989859967  12.045162934452
C  -0.681766509228 -18.590357982147  12.450929868900
C   0.160691261571 -18.109415352903  11.278454407551
C  -0.722467202805 -17.543820798060  10.176190099380
C   0.026685030261 -17.191936456084  8.901715648748
O  -0.866142375213 -16.849982893768  7.844882035332
C  -0.185244428082 -16.597696684740  6.619358944169
C  -1.121016509961 -16.645576551064  5.421404176921
C  -0.408481872591 -16.353957462815  4.103545627643
C  -0.098677122224 -14.873476946624  3.948567314245
O  -1.291070812754 -14.100525424560  3.901260237596
C  -1.039432985661 -12.703502452252  3.774401049571
C  -2.335023142194 -11.909379414726  3.748910191484
C  -2.145509109017 -10.408973720373  3.528406920441
C  -1.686879515807 -10.048369104631  2.124020635631
O  -1.458610426836 -8.649458020311  1.964649420571
C  -1.217211692763 -8.295357748488  0.604565742364
C  -0.472591714718 -6.974489679240  0.472228148584
C  -1.240194494879 -5.811199544443  1.087358527438
C  -2.431041077560 -5.374080034811  0.244520014543
O  -3.319345023976 -6.447339842029 -0.044676335818
C  -4.525471261611 -6.033353308139 -0.688918425787
C  -5.753339767324 -6.689022643055 -0.074644592535
C  -5.920023212188 -6.335219944177  1.401586790534
C  -4.870290591697 -6.974714683259  2.297794675900
O  -4.965984570571 -6.523404965316  3.643745957305
C  -4.065960407421 -7.211324846410  4.504561664406
C  -4.130585190459 -6.695421733204  5.933390389743
C  -3.182493729694 -7.422934376033  6.886603535640
C  -3.442933616715 -8.922503228961  6.950269562049
O  -2.714296511328 -9.582706563628  7.980900782993
C  -3.321570160202 -9.466374818304  9.266109461559
C  -4.148235985444 -10.689065983369  9.644304054913
C  -5.266699994330 -10.982850590853  8.653595299459
C  -6.122005428964 -12.181075088681  9.039626221051
O  -7.135061482866 -12.471091630093  8.074929487759
C  -6.841293071706 -13.604444542734  7.272205578302
C  -5.685862443532 -13.373232155659  6.312983391554
C  -5.963771196324 -12.223083438505  5.342898933943
C  -6.860299046238 -12.626960584927  4.180655219916
O  -7.071472309656 -11.593191654708  3.226130271664
C  -5.863461767686 -11.082308903450  2.673296062371
C  -6.036320264704 -10.601015432686  1.242501986742
C  -6.541182964724 -11.702502853206  0.321149200057
C  -5.620008800411 -12.915068799822  0.312846403799
O  -4.266079764251 -12.554562453358  0.070528710159
C  -3.371234030310 -13.643700250879  0.276829559996
C  -1.926695895192 -13.253256547416  0.014116120248
C  -0.921802696150 -14.344524937875  0.368336410035
C  -1.013932366755 -15.560472663237 -0.540723915705
O  -2.274757765736 -16.209712510878 -0.502720729590
C  -2.511874248639 -16.903534889100  0.717285221640
C  -3.768111405814 -17.758494762501  0.646782812332
C  -4.056242264397 -18.520539377374  1.939757471924
C  -4.440630430656 -17.613892574154  3.099796124104
O  -4.714281143498 -18.342422021699  4.293689662262
C  -5.020107362443 -17.476613396674  5.382694788060
C  -5.195012806329 -18.220326267523  6.700191429082
C  -5.508338693629 -17.291356773080  7.870915311883
C  -4.344487591654 -16.382298262589  8.237707360043
O  -4.700599642284 -15.409261054234  9.214872075676
C  -3.575088204428 -14.878999237090  9.900349364097
C  -2.525474559537 -14.280264985446  8.975648169570
C  -1.353178315857 -13.650083431799  9.718251731462
C  -0.337855327733 -13.037053740967  8.768715636784
O   0.768918329304 -12.475912766924  9.461880324129
C   1.813340395136 -12.058009154999  8.598273125961
C   1.393612734743 -10.946507323737  7.650170387599
C   0.771413399266 -9.776102423022  8.392803457834
C   0.340295091121 -8.668221285988  7.446822440962
O   1.441375286031 -8.150708013668  6.709726861842
C   1.103622775132 -7.024505522447  5.912081231746
C   0.306845673292 -7.378852020403  4.665969672348
C   1.098850252165 -8.225856907885  3.674175206992
C   1.589950346454 -9.550978627573  4.235900569656
O   2.084626185326 -10.404349407160  3.209323683620
C   2.617409894390 -11.627685123565  3.708833857884
C   2.818357494643 -12.643132113896  2.594109337580
C   3.340429880718 -13.987914567816  3.082352004935
C   3.437607387144 -14.989086955475  1.942125591818
O   4.372322627815 -14.564181728986  0.956327831776
C   4.144155363583 -15.143401070195 -0.324118200506
C   3.109202429808 -14.379198852538 -1.137245006836
C   2.919466903874 -14.941802558651 -2.539753955324
C   1.930550747452 -14.120020675123 -3.351808096906
O   0.635154038803 -14.117610362628 -2.768203235847
C  -0.277836656750 -13.264449132614 -3.451573335178
C  -0.098835221673 -11.795117921301 -3.097604670563
C  -1.199550459909 -10.910056994650 -3.674906099308
C  -1.025388413491 -9.443731984891 -3.313184075945
O  -2.058401437380 -8.632113153789 -3.860505320187
C  -2.027690425439 -7.293394505799 -3.382521194097
C  -0.930148115657 -6.445238102837 -4.013879538312
C  -0.773336773542 -5.074707655231 -3.356155017129
C  -2.026476985703 -4.213395519445 -3.418168813860
O  -1.879299903080 -3.016732404040 -2.659939278097
C  -3.061037818267 -2.227838437554 -2.645383136542
C  -2.936407799735 -1.009587451323 -1.740018228686
C  -2.663569506378 -1.386982264080 -0.287697859747
C  -1.222609699246 -1.830979573598 -0.078773691766
O  -0.317143525971 -0.768962731969 -0.306651292309
H  -7.120770109526 -23.771431393144  2.705850978736
H  -8.152320202958 -26.405565819657  2.889526182522
H  -8.278241394368 -25.324646577089  4.268162826457
H  -9.482101699604 -23.640887898625  2.878419719745
H  -9.254394414801 -24.614494118515  1.455482269601
H  -10.906897943670 -25.472848580997  3.879555289650
H  -10.672306999690 -26.424284761599  2.432858851871
H  -12.850989503971 -25.172503572052  2.298404795448
H  -11.991350600328 -23.659080385198  2.531765863188
H  -12.749387784376 -25.558111017148 -0.683523448674
H  -12.198097147824 -26.529287933573  0.669554303326
H  -10.852003269424 -27.102051226020 -1.312017771394
H  -9.826864967753 -26.300919892338 -0.146621277593
H  -9.513233522272 -25.491849416895 -2.548220822224
H  -11.138018999988 -24.863180698023 -2.511034621047
H  -8.868632006180 -23.999193977880 -0.655945956918
H  -10.520198978362 -23.351738773921 -0.619679807792
H  -7.619722971735 -22.265401069659 -1.437206840878
H  -8.281593609798 -21.229047802600 -2.683482798923
H  -10.223313970340 -20.747376088994 -0.968265276297
H  -8.716387118817 -19.886423583778 -0.795575410011
H  -9.404814165807 -22.388172328207  0.826073226154
H  -9.620191037885 -20.766489471651  1.392775005501
H  -6.916220678864 -21.965694073623  0.595055864944
H  -7.178650202489 -20.328019508899  1.181618609643
H  -6.264926936242 -20.308695893323  3.215996272998
H  -5.410071099145 -21.716355870869  2.578525845297
H  -6.146956841776 -23.042315024052  4.594381222077
H  -7.014927734456 -21.653719422605  5.183637582432
H  -4.797829536654 -20.368804491506  5.231693588561
H  -3.972645144306 -21.833076226919  4.809131728299
H  -5.765100067819 -21.569184897508  7.284471923071
H  -4.730416317961 -22.938593350559  6.890399092316
H  -4.570583319571 -21.772431066822  9.300516774464
H  -3.273497021756 -22.802213999403  8.697151526347
H  -2.951344820961 -19.943823262567  9.746981298215
H  -1.657627086620 -20.872085815170  9.042873991534
H  -3.218676190719 -21.646477591772  11.561140412634
H  -1.956895465477 -22.625750464992  10.847860748414
H  -0.329730034981 -20.719898722461  11.182580593150
H  -1.012722065545 -21.269876332498  12.711061382626
H  -0.078989871320 -19.084262215414  13.221920842066
H  -1.177605778368 -17.740257403665  12.933626481251
H   0.890447919767 -17.357508254534  11.603401236697
H   0.755832975188 -18.937278424180  10.878331295019
H  -1.504428344282 -18.269873367062  9.932251713943
H  -1.260328044877 -16.666176505862  10.545060390209
H   0.713183860601 -16.353643582809  9.063815211772
H   0.628963192820 -18.045217806026  8.571020352546
H   0.610402853210 -17.341989185100  6.503415221464
H   0.304348598037 -15.622532021110  6.702999640028
H  -1.606828399451 -17.629001310615  5.394783872474
H  -1.930391549170 -15.921591254534  5.566301647777
H  -1.035184751735 -16.668392971777  3.261521739783
H   0.508009239604 -16.952581988524  4.034416877399
H   0.503474100234 -14.510291867250  4.787514801858
H   0.470240321107 -14.678668380471  3.033272932471
H  -0.411308402931 -12.389472172507  4.614559932680
H  -0.460813629294 -12.543392518869  2.859579073012
H  -2.863810135429 -12.094918879423  4.691092280546
H  -2.980462327687 -12.319062816813  2.965870588486
H  -3.081608473158 -9.877427535849  3.726869071344
H  -1.429347372003 -10.016572512698  4.256391807835
H  -0.752256432979 -10.562725279248  1.876256136272
H  -2.437166150942 -10.353854620071  1.386171692367
H  -2.194180827503 -8.244805646512  0.110930351271
H  -0.654432095602 -9.109221770319  0.132208989265
H   0.505813237224 -7.074866436853  0.957551249293
H  -0.255617326278 -6.760105491275 -0.580450123745
H  -1.590821766092 -6.113628763065  2.080518368550
H  -0.572277311733 -4.955673008246  1.254402610975
H  -2.100411900846 -4.959174747003 -0.712267737974
H  -2.999857933777 -4.589335202370  0.756815219515
H  -4.607419990826 -4.942373435231 -0.626917040967
H  -4.430264465897 -6.281179628399 -1.752156730518
H  -5.668897816650 -7.776283448139 -0.179604665073
H  -6.650160683276 -6.401555260793 -0.638971258673
H  -6.913625855210 -6.628379521027  1.762639067696
H  -5.877140608732 -5.247481651114  1.526908320179
H  -3.861239892297 -6.743203337804  1.944501195819
H  -4.964434747186 -8.065463518692  2.288102473026
H  -3.053329763859 -7.112689660837  4.097920276827
H  -4.331055252351 -8.272139953566  4.469261902323
H  -5.161973014225 -6.789595941190  6.292075575428
H  -3.924604074455 -5.618419154192  5.931209254477
H  -2.144097354337 -7.247229985239  6.587782041193
H  -3.263337497586 -6.997309715899  7.893326072783
H  -3.164600389779 -9.405786541593  6.008737903091
H  -4.510674451424 -9.114465084897  7.087994336190
H  -2.510703107106 -9.304179353962  9.986695229127
H  -3.938621350939 -8.561812854389  9.286431874760
H  -3.488149862098 -11.560135297397  9.706090762622
H  -4.568681107205 -10.567916021737  10.650235946849
H  -5.914455100125 -10.105640576953  8.545885320208
H  -4.835255144162 -11.149711008655  7.662495137236
H  -5.507208152651 -13.074903278815  9.187930802348
H  -6.629394454798 -11.997552367180  9.993704893099
H  -6.652104309205 -14.447044403010  7.947429724552
H  -7.757081644381 -13.843995993930  6.721054647447
H  -4.777737554058 -13.172147905680  6.891524412142
H  -5.466292657348 -14.286453884078  5.746463522736
H  -5.021127787948 -11.829133885576  4.949885353779
H  -6.424429995825 -11.386125091813  5.879569677177
H  -7.848920162904 -12.931677316694  4.540753645495
H  -6.445111573171 -13.491557421225  3.650990630055
H  -5.516866240473 -10.275308174337  3.329122601317
H  -5.108577784063 -11.873396120662  2.709003763161
H  -6.731747134692 -9.752929785153  1.230213819343
H  -5.080723928533 -10.219426106901  0.860927336218
H  -7.551508680094 -12.002915217715  0.625700919341
H  -6.635136215540 -11.314768690229 -0.700878002629
H  -5.661530973225 -13.435719791159  1.275530757901
H  -5.918153824106 -13.641676570188 -0.452347322753
H  -3.675924545723 -14.466631692343 -0.379574137234
H  -3.493086584270 -13.989313076865  1.309037426736
H  -1.821009537616 -12.968904338433 -1.037144238405
H  -1.706379511861 -12.341554187107  0.579253494393
H   0.095997225004 -13.935681049323  0.334276128319
H  -1.079995319271 -14.651101462734  1.406552813097
H  -0.241555557057 -16.302656221162 -0.306507235677
H  -0.851344626579 -15.268095523275 -1.583822384829
H  -1.637751887810 -17.526390427897  0.936246500942
H  -2.591982060729 -16.164952686833  1.519690595504
H  -4.621789459904 -17.120414892359  0.392076561356
H  -3.668354636490 -18.454168489080 -0.195276225092
H  -3.183119413657 -19.117843663396  2.225265742762
H  -4.861207770864 -19.245773504472  1.777886599959
H  -5.330007713230 -17.024610631586  2.850284058990
H  -3.637668213514 -16.902107410521  3.317817829478
H  -4.213566973446 -16.741120171912  5.457998962466
H  -5.931548378203 -16.924129195323  5.128528112575
H  -4.287074868509 -18.795750977983  6.915289747255
H  -5.993343878051 -18.962470214486  6.582067645191
H  -5.799677510630 -17.867260609545  8.757746050937
H  -6.382185351077 -16.678285870392  7.626858232480
H  -3.983489677099 -15.839690674932  7.358802281161
H  -3.502949162828 -16.974351441971  8.615813810082
H  -3.155659318793 -15.679197603177  10.518008994456
H  -3.949463544626 -14.123130616505  10.599345447575
H  -2.995961117009 -13.534183847675  8.326668260366
H  -2.145449740628 -15.050420970828  8.296211307185
H  -1.708432940030 -12.883720233807  10.415691902483
H  -0.854698931138 -14.395889182762  10.346520380409
H  -0.809686879214 -12.252341739733  8.167998834345
H   0.041097005533 -13.791770835495  8.072087005908
H   2.627680338514 -11.716760153940  9.247724403953
H   2.187784402128 -12.936791879557  8.059953856037
H   0.681073709753 -11.331481308688  6.912280302213
H   2.253470997094 -10.596230684883  7.066313232106
H   1.494779842627 -9.377007355865  9.112834219452
H  -0.079582820809 -10.126417612247  8.989992669972
H  -0.401475336840 -9.048105911439  6.737368231479
H  -0.124771261229 -7.841272553871  7.995832913742
H   2.048491441453 -6.545858008718  5.630936196049
H   0.570007306581 -6.307171612264  6.546848553368
H  -0.042072771022 -6.461121313306  4.174330268733
H  -0.603375590045 -7.913644629208  4.952753886034
H   1.956417433688 -7.659576895560  3.293395934705
H   0.483656493761 -8.443016490059  2.794493165744
H   2.385343994336 -9.391687999899  4.972316888823
H   0.777841335078 -10.077685831817  4.745938707543
H   1.934892041436 -12.022996364525  4.468440838604
H   3.563529809301 -11.404657007923  4.214021677045
H   3.500336659751 -12.231004434008  1.841608489455
H   1.869372220372 -12.782180891688  2.064626453465
H   4.329844425403 -13.855238957721  3.534252230439
H   2.698977377458 -14.373393640478  3.883288464968
H   3.757288519896 -15.976492762058  2.295840814498
H   2.459464007159 -15.119889175059  1.467237580274
H   5.108238905292 -15.147764394095 -0.845297053114
H   3.857785840107 -16.192851405793 -0.193056192477
H   2.148834586849 -14.369744350143 -0.612726240305
H   3.408748244891 -13.326614347108 -1.195811447526
H   2.563035859070 -15.976035661154 -2.473682868727
H   3.887692240770 -14.991828402294 -3.053137186815
H   1.835615072475 -14.507887083462 -4.372932623155
H   2.275243246989 -13.084016933105 -3.429082004613
H  -0.177664640681 -13.430583226764 -4.529856704968
H  -1.287207560230 -13.598679514483 -3.187542857027
H   0.878231382001 -11.441219676489 -3.443281175325
H  -0.068901886047 -11.688210911993 -2.007416039023
H  -1.232238499571 -11.012210228874 -4.765398325244
H  -2.180571453052 -11.251960427755 -3.325662842914
H  -0.061734829505 -9.073291135880 -3.676499118935
H  -1.028678668788 -9.319005451326 -2.225420703349
H  -1.934157952365 -7.318995221002 -2.291802171566
H  -3.013761298279 -6.867343953232 -3.596190040203
H  -1.138071401059 -6.329010202086 -5.083535811669
H   0.020821374342 -6.986838813980 -3.964501584386
H   0.059324373424 -4.521533181102 -3.807171375400
H  -0.488772103813 -5.202701232968 -2.306720597593
H  -2.890760461609 -4.754058436785 -3.020579591113
H  -2.265172141780 -3.942379833444 -4.452419286974
H  -3.886553360832 -2.865399064592 -2.310065366759
H  -3.277814019527 -1.935116644855 -3.679537910291
H  -2.116064426840 -0.377245677148 -2.098693903225
H  -3.846049830595 -0.398894012956 -1.812881047800
H  -2.854921658977 -0.528264090637  0.367665298243
H  -3.363226639885 -2.170146211931  0.028379618631
H  -0.978115623432 -2.648351368879 -0.768620554433
H  -1.069872402103 -2.207383016871  0.941462153422
H   0.616129760866 -1.076959845252 -0.235939428175
