142
pair_id=pair_40af32527bfdc13057fd start=3 nco_site=2 oh_site=1 attack_angle_deg=105.000000
C   0.159883306100  2.323753869400 -0.000995589400
C  -0.915882950700  1.477548341000 -0.000889906500
C  -0.733639648400  0.081070027900 -0.000518832500
C   0.583222895200 -0.449703940800 -0.000364756500
C   0.783355439400 -1.844419106000 -0.000205264700
C  -0.284573324100 -2.698870241200 -0.000232302300
C  -1.590540479800 -2.199499701100 -0.000313781500
C  -1.818214859700 -0.843116478200 -0.000342842400
N  -3.121474537100 -0.417891108100 -0.000126661600
C  -3.872846675800  0.506806114300  0.000830545000
O  -4.755064004400  1.257563566600  0.001595702000
C   1.674770097700  0.460296976500 -0.000398062000
C   1.463863819100  1.820274224000 -0.000699877800
N   2.939587000300 -0.071992494900 -0.000175286400
C   4.110474945300  0.148126150600  0.000736432600
O   5.267788579400  0.154240520700  0.001452554500
H   0.010107250600  3.392630684300 -0.001358245900
H  -1.917456576800  1.881777715100 -0.001153599100
H   1.795046022600 -2.219835175600 -0.000080892500
H  -0.129086437300 -3.766877366400 -0.000148362900
H  -2.432680020500 -2.873840173600 -0.000261212800
H   2.307590927200  2.494321811000 -0.000741655800
O   3.425453579748 -2.463527714848 -0.002396589733
C   3.064949340013 -3.837955343765 -0.004045396458
C   4.166879958078 -4.668529678520  0.640244231867
C   5.554893150227 -4.475801946629  0.017761147512
C   5.612563576012 -4.720593297869 -1.486418228293
O   5.082501360577 -6.012236655279 -1.778422529702
C   5.137301175766 -6.302256174734 -3.174211362784
C   4.559971085116 -7.694815414324 -3.397732664861
C   4.545011849596 -8.064398592996 -4.881445509278
C   3.966524624343 -9.455242242422 -5.121275901364
O   4.822827681473 -10.426532938703 -4.525240676211
C   4.329799994651 -11.752122346434 -4.708357204022
C   5.273858916448 -12.740209710544 -4.031110308776
C   6.680644713246 -12.705010272188 -4.638673403696
C   7.621305026212 -13.702940298777 -3.964825866968
O   7.137175311462 -15.043276215852 -4.039846265852
C   7.388330821196 -15.666637519120 -5.298589084799
C   6.842876082255 -17.089660550312 -5.234808227288
C   6.972149883075 -17.851298111850 -6.550868953324
C   8.415941792261 -18.139550612468 -6.950117122027
O   8.391686378814 -18.905309420759 -8.154504533793
C   9.688587792538 -19.180593337222 -8.679997207212
C   10.451777573877 -20.237852016757 -7.882408247227
C   9.646439836058 -21.529614540162 -7.707295367523
C   10.447404019320 -22.616040025059 -6.995212219466
O   10.802926125765 -22.160484284346 -5.691198717687
C   11.535571245954 -23.126095731815 -4.938181624826
C   10.588968241758 -24.090974171171 -4.229218710580
C   11.351519468354 -25.074395216505 -3.348284168036
C   10.409763367553 -26.027367826345 -2.622655729826
O   11.200308879495 -26.921762453589 -1.842159184753
C   10.396546348659 -27.848593758700 -1.118751359248
C   11.300466481000 -28.789905360776 -0.327513219701
C   12.335441323460 -29.539333999258 -1.171766947528
C   11.715924531315 -30.419978182391 -2.254715234989
O   12.728123459712 -31.161353841837 -2.936742999900
C   13.060529356260 -32.403103224082 -2.318553310450
C   12.112672998208 -33.519837233152 -2.754713171117
C   12.119982794208 -33.721593555817 -4.274180102684
C   11.168321242848 -34.834012386753 -4.711759496568
O   11.447822284047 -36.077313750632 -4.070825446509
C   12.550268644229 -36.775288464086 -4.643671557997
C   12.720771133241 -38.112093682605 -3.925187606908
C   11.506680449852 -39.029296499520 -4.116671431149
C   11.715522641671 -40.412520061698 -3.508827749974
O   11.751632777195 -40.356945041433 -2.090255018756
H   2.667341102927 -1.972701444059 -0.363071116876
H   2.134700406125 -3.952975838256  0.561833295778
H   2.877830801044 -4.151992567654 -1.035344550344
H   3.884814458913 -5.727288623710  0.606491910065
H   4.241572834950 -4.394524971390  1.700091426545
H   6.237812298020 -5.176041813432  0.515044690008
H   5.925490516226 -3.466630083335  0.231938957981
H   5.042339829605 -3.955833088218 -2.025221742938
H   6.655425487873 -4.669399843741 -1.820445037751
H   4.551866068974 -5.556188065946 -3.723804084052
H   6.177753549640 -6.264008840060 -3.516759542248
H   3.543122114117 -7.737057835950 -2.987666887091
H   5.145724466737 -8.422503154914 -2.822717140305
H   5.570867029250 -8.027461609844 -5.267743289504
H   3.952434385167 -7.328918660948 -5.437647773853
H   2.960861288698 -9.529584212880 -4.691685006014
H   3.904862027232 -9.642179423301 -6.199385054666
H   3.333828996359 -11.835106577337 -4.258563200965
H   4.252907841157 -11.973270782157 -5.779174698299
H   5.344968530133 -12.497258641556 -2.963911408846
H   4.850709121825 -13.747432594431 -4.115703855903
H   7.108550482992 -11.700787333673 -4.538975778431
H   6.610292660645 -12.919128962530 -5.710700132517
H   8.628719938854 -13.638121776454 -4.392241061363
H   7.708421202431 -13.454607441763 -2.901314660696
H   8.467173514481 -15.674343640004 -5.484597733282
H   6.888796021477 -15.112551285121 -6.099451973605
H   7.342742783030 -17.639357752448 -4.427484071812
H   5.783843269740 -17.048673750451 -4.949506568333
H   6.470322571868 -17.302151207984 -7.357396206958
H   6.433423646476 -18.803767213168 -6.465859278587
H   8.913470796193 -18.704149633077 -6.155385419237
H   8.962150598894 -17.207665142205 -7.128067995746
H   10.269759886969 -18.253777090985 -8.750795240945
H   9.542659440458 -19.542891979460 -9.703687017304
H   11.395155003766 -20.454419650079 -8.397602551619
H   10.714145825122 -19.836769752805 -6.897274500607
H   9.327429632578 -21.903436981111 -8.686981403078
H   8.743806395674 -21.314595368021 -7.123025212821
H   9.836847214261 -23.521818387488 -6.923061442142
H   11.355310756569 -22.848304402771 -7.563635936903
H   12.252079776938 -23.655297988879 -5.577423715773
H   12.113215912805 -22.570801874567 -4.191147216627
H   9.990722323384 -24.640256730243 -4.964946781091
H   9.872865897623 -23.517287589693 -3.627777778381
H   11.958179295969 -24.534086741412 -2.610765301886
H   12.060291726508 -25.653955214454 -3.953071265127
H   9.817123595437 -26.599701278262 -3.345507816328
H   9.732970926707 -25.467584275347 -1.967037053811
H   9.747125673892 -27.302323020050 -0.424911914689
H   9.761731029179 -28.413207452372 -1.810410316134
H   10.680564336918 -29.509243216553  0.220158738548
H   11.848038699215 -28.202439241949  0.420054834362
H   12.951774230663 -30.150997869491 -0.502490623147
H   13.033637837713 -28.832928721750 -1.637764388234
H   10.950359078057 -31.085335144815 -1.841323587892
H   11.232264048872 -29.792053489714 -3.009606520765
H   13.069665043572 -32.310084403444 -1.227157173831
H   14.080928461041 -32.653071596323 -2.629053088111
H   11.090489711457 -33.288395599633 -2.435054983276
H   12.409663426782 -34.446462685584 -2.250384851622
H   13.140950988304 -33.953498462702 -4.596906309370
H   11.826523575797 -32.794230636323 -4.779445303772
H   10.144028246427 -34.558674743392 -4.437152441244
H   11.185212550576 -34.955421595050 -5.801113939100
H   13.465690506267 -36.187460898285 -4.522684030705
H   12.374377145432 -36.939918192694 -5.712835176607
H   12.867408410870 -37.922980123139 -2.855560284315
H   13.621838443133 -38.608101013027 -4.303792916761
H   11.306322252107 -39.143113575927 -5.188485154803
H   10.625202371467 -38.564104009233 -3.659935311294
H   12.640932047499 -40.874156227460 -3.868179741687
H   10.884008139466 -41.066795674646 -3.788932577083
H   12.509917322455 -39.808855915293 -1.829526751899
