46
pair_id=pair_607a6a8329ad6b63c6a5 start=2 nco_site=1 oh_site=2 attack_angle_deg=105.000000
O  -0.892359844500  1.922011143500  1.551618387200
C  -1.404048441200  1.265858264700  0.741439727900
N  -2.097646827800  0.724591544800 -0.055434653500
C  -2.188583977800 -0.380267317600 -0.939051686600
C  -1.948006681800 -1.723900442000 -0.237227573400
C  -0.600190088900 -1.812992178400  0.478380570900
C   0.590144176500 -1.814376315600 -0.479165993500
C   1.938255299900 -1.732525388000  0.236759994800
C   2.184943254300 -0.390931150000  0.940312561300
N   2.100561577500  0.715338087100  0.057787667700
C   1.411701532000  1.258791172400 -0.741747682600
O   0.904946916700  1.916913100500 -1.553406737200
H  -1.481714308000 -0.239304900100 -1.763952380200
H  -3.200357203700 -0.362292705500 -1.353096596100
H  -2.021952472600 -2.511158111200 -0.989744811800
H  -2.743023821800 -1.878381459700  0.495345010200
H  -0.520339529300 -0.972662132800  1.170725239600
H  -0.579098842200 -2.728618728900  1.073920219300
H   0.513845165600 -0.972072399900 -1.169506146300
H   0.565199503500 -2.728466370800 -1.076911659400
H   2.008388233900 -2.521130983500  0.988226084900
H   2.732711129400 -1.889708449300 -0.495850937800
H   1.477836651300 -0.247147674100  1.764520080100
H   3.196296960900 -0.378477551100  1.355590495500
C  -4.642122512049  3.791822366421 -2.497397130866
C  -3.922687234737  4.780072045759 -3.416465051939
C  -2.428892496567  4.937264011234 -3.117569566317
C  -1.636288758228  3.628845490585 -3.209772798679
O  -1.777884824966  2.791228221018 -2.082279359163
C  -4.802965966253  4.302906469642 -1.062742984922
C  -4.961123771569  3.153293574546 -0.064186844166
O  -3.742743262227  2.506803359810  0.211758875856
H  -4.085827288308  2.853859988483 -2.499355306227
H  -5.631717072843  3.581177057624 -2.909374731016
H  -4.030621489421  4.437363217847 -4.448273422653
H  -4.401026812599  5.759779313579 -3.341618616130
H  -2.006568013306  5.640609573413 -3.838129885572
H  -2.284987343037  5.365395402697 -2.122369349369
H  -1.982536552404  3.035598512985 -4.059461504883
H  -0.572780694540  3.860277754763 -3.364209983774
H  -1.456551713964  3.262016742454 -1.303913412786
H  -3.928383486788  4.882097556150 -0.762355262166
H  -5.671882944603  4.959816055628 -0.998890972009
H  -5.312376235381  3.533723494392  0.898629518960
H  -5.703212728409  2.433513636415 -0.442119169151
H  -3.322205551204  2.267687043880 -0.626536467092
