35
pair_id=pair_853f476a9d9d031b71ca start=3 nco_site=2 oh_site=1 attack_angle_deg=105.000000
C  -2.446703299700 -1.853063307200  0.000123365600
C  -1.098027931500 -1.205932880900 -0.000066001300
C  -0.977301580500  0.191279927900 -0.000010540500
C   0.267967642200  0.804165982100 -0.000123504100
C   1.417991736400  0.026293504500 -0.000147019000
C   1.317979512900 -1.362983689200 -0.000021543200
C   0.069352399300 -1.955586166900 -0.000065144800
N   2.632038095300  0.666782419400 -0.000316067500
C   3.817430935400  0.550232190400  0.000086689700
O   4.971044958500  0.643019233500  0.000273142600
N  -2.082630512100  1.005769681200  0.000064390200
C  -3.274049916600  1.044002541200  0.000022428200
O  -4.404742005300  1.293651270200  0.000058905200
H  -3.016326284800 -1.552982801300  0.880538512500
H  -2.353428997400 -2.935486979200 -0.000257502200
H  -3.016936278500 -1.552395575500 -0.879688210700
H   0.338560408400  1.879666146500 -0.000123025800
H   2.213426184600 -1.965662440300  0.000120232800
H  -0.000809997700 -3.033428387600  0.000035023700
O  -2.029388109371  3.440002742571  0.000166146181
C  -1.377953675136  4.694027752851  0.000241365684
C  -0.094688453066  4.725525010485 -0.833374234501
C   1.090290300184  3.972197502103 -0.221518224929
C   0.951369092813  2.442955566811 -0.216014146288
O   0.170756230129  1.944029656439  0.834170321517
H  -2.243170975296  3.199141510172 -0.908681506322
H  -2.067883331484  5.465470192986 -0.369278428234
H  -1.155346012192  4.904817337635  1.048633473963
H   0.189859839668  5.772682208576 -0.955198854099
H  -0.305683411650  4.322974122857 -1.829401118237
H   1.983634551771  4.225927996601 -0.795700515429
H   1.244527709904  4.305695332671  0.806386663408
H   1.940316411977  1.996196478874 -0.079730659832
H   0.559504404541  2.106695231350 -1.190084974910
H  -0.717030522050  2.334468599665  0.760667120428
