271
pair_id=pair_d434badaff61c4b9cbd1 start=3 nco_site=2 oh_site=1 attack_angle_deg=105.000000
C  -0.000459126700  0.000735647000  0.522920831700
C  -0.992010663100  0.785756250600  1.378015788600
C  -2.016019424300  1.545821546900  0.531210324300
N  -2.900118248500  0.690267334900 -0.172920072400
C  -3.027304416400 -0.361792352400 -0.706570253900
O  -3.350981806000 -1.330304924500 -1.258230835400
C   0.991685933700 -0.781037848400  1.380304733300
C   2.015050216700 -1.544161560500  0.535524113100
N   2.899661976200 -0.691079752300 -0.170947158200
C   3.028001394800  0.359617411700 -0.706957544600
O   3.352420678500  1.326287571100 -1.261459476700
H   0.543752107700  0.694726014500 -0.123116924700
H  -0.545127995300 -0.695790143500 -0.120004612200
H  -1.519839110600  0.103171708700  2.047840451100
H  -0.453194586000  1.512088430100  1.989342102200
H  -2.639266568200  2.176501823800  1.171880418400
H  -1.502500947100  2.189849824200 -0.192137373200
H   1.520081193200 -0.095964201300  2.047135765000
H   0.453279376600 -1.505025608900  1.994762298100
H   2.637854627800 -2.173717065300  1.177729304000
H   1.501047115700 -2.189637061700 -0.186196264700
O   5.199054841230 -1.244295404345 -0.770128829788
C   6.342135053396 -2.088770700463 -0.803389110042
C   6.600941266458 -2.509835176730 -2.243605881313
C   7.858557216341 -3.371631108046 -2.362500025307
C   8.136136690531 -3.781210642047 -3.805887471238
O   7.127456421499 -4.691089386537 -4.238538287738
C   7.275089806869 -5.036609816264 -5.613468434612
C   6.270983806947 -6.127725667675 -5.973151646773
C   4.824551505468 -5.690833661155 -5.746180190120
C   3.845210794731 -6.807317650678 -6.086166835820
O   2.531357461549 -6.364429934654 -5.748742323279
C   1.525129580894 -7.233258768648 -6.260119501632
C   0.161124018841 -6.709634930032 -5.821924671597
C  -0.093201546323 -6.837239349253 -4.317357679932
C  -0.374051157970 -8.273175554844 -3.885296013453
O  -0.761680886788 -8.266413660097 -2.509925814352
C  -1.480361941120 -9.451540230975 -2.160152728008
C  -1.859040345766 -9.369881296958 -0.686917333189
C  -2.979348538208 -10.331850851355 -0.286226681215
C  -2.717041386547 -11.801475668064 -0.597172628109
O  -1.514673010814 -12.215449148122  0.042214077119
C  -1.345773139006 -13.632659211956 -0.020708252600
C  -0.049657399367 -14.005375965273  0.686562652509
C   1.181256587356 -13.609416231336 -0.128444355169
C   2.451890298994 -13.789530608604  0.688166992853
O   3.585025608649 -13.592955116590 -0.152348468783
C   4.779202408399 -13.485146661353  0.624428426316
C   5.965241926793 -13.356108651435 -0.319905772870
C   7.288607344218 -13.380155129364  0.443684403270
C   8.494398216365 -13.360956977772 -0.488793787571
O   8.487615718821 -14.541177933260 -1.289733958259
C   9.656213131495 -14.655697783050 -2.092708032957
C   9.588789576740 -15.916074971470 -2.952875682889
C   8.570647427477 -15.847247198142 -4.101255755713
C   7.107434922810 -15.917697680147 -3.673085933872
O   6.885991517505 -17.129662502610 -2.956282181304
C   5.574558328911 -17.190735290022 -2.397105565007
C   5.525703471502 -18.398491465614 -1.468954199505
C   4.184003352257 -18.604090052641 -0.770322290760
C   3.742027730969 -17.403911481226  0.065895363722
O   2.695318266635 -17.790062380253  0.962616116627
C   3.186090903139 -18.227698377420  2.233987871759
C   3.347363447405 -17.041360562551  3.182610509395
C   1.993505864455 -16.530461552138  3.690560725949
C   2.090319698504 -15.152980860278  4.342331698801
O   3.168798967820 -15.127168054880  5.270649564069
C   3.260269754705 -13.917315553784  6.022884612088
C   3.540785424202 -12.687657861416  5.157380300718
C   3.935902642792 -11.484742483837  6.015236542539
C   3.969089812005 -10.182438246425  5.221657931266
O   4.888853169317 -10.291793859915  4.136831207209
C   4.987342309561 -9.075765792448  3.393226080307
C   4.498231460143 -9.264717155647  1.960266068821
C   3.041524579652 -9.730511116082  1.891857390197
C   2.451754675865 -9.593890227735  0.492766396360
O   3.251304992039 -10.311727136694 -0.440636700250
C   2.734827116446 -10.203268337258 -1.764395644829
C   3.696393249213 -10.902156831645 -2.715431373920
C   3.241811353224 -10.772676072901 -4.169657148965
C   4.235053893717 -11.407190525259 -5.138079155727
O   5.478698398752 -10.722826221250 -5.027998990293
C   6.482445528445 -11.263859455188 -5.882859582743
C   7.837115244300 -10.720352597852 -5.436176918025
C   8.229694281460 -11.276342007943 -4.060581312258
C   9.499235724410 -10.630055145106 -3.507262889821
O   9.350802071038 -9.235661714410 -3.251969006321
C   8.509555642345 -8.929171737009 -2.135375253817
C   7.311017831661 -8.138567539881 -2.638672074857
C   6.349257542640 -7.743052872401 -1.524584697005
C   5.154521295092 -6.996711317819 -2.103858916122
O   4.291366121877 -6.579813954341 -1.047996556068
C   3.104054192947 -5.982933567284 -1.571467362012
C   2.417562624746 -5.185010717884 -0.470406816472
C   3.274653113243 -3.998347957805 -0.039892866320
C   2.571600320000 -3.108703187747  0.974301685195
O   3.468458881560 -2.048178412618  1.324612546438
C   2.848224322575 -1.113387612855  2.209327351951
C   3.921342709753 -0.158708912429  2.719195216012
C   3.346661008247  0.865639125982  3.698369086915
C   4.431622463371  1.706617147388  4.377574347490
O   5.462328393423  0.906820873296  4.953180766915
C   5.083328814483  0.255686043123  6.163378876204
C   6.065598413873 -0.885337962578  6.400825175774
C   5.598225601829 -1.805674274628  7.521738080019
C   6.492776481015 -3.035000017741  7.645649570117
O   5.885074734063 -3.965626060669  8.542087420203
C   5.452029568739 -5.175400491176  7.916565161930
C   4.202285396146 -4.959871762538  7.064197770482
C   3.691721478785 -6.267176123816  6.468709821581
C   2.421584919100 -6.054821997000  5.650443947034
O   2.017018260097 -7.318818446864  5.126782036333
C   0.700130550957 -7.311960659457  4.575012270075
C   0.631627848939 -6.590110533461  3.230334685772
C  -0.756405743587 -6.734541919628  2.601814826208
C  -0.849536676824 -6.088338679156  1.226131869796
O  -0.576715907779 -4.696738300842  1.319881209812
H   4.717387374334 -1.451973631052  0.059194684810
H   7.189788230167 -1.530824587179 -0.394086331582
H   6.164521704090 -2.965012967030 -0.171895628530
H   5.725570289465 -3.051652311339 -2.622992006489
H   6.695223095960 -1.615369018077 -2.871978156413
H   7.737308217772 -4.269736829798 -1.744614533745
H   8.719880287762 -2.813474366229 -1.977749515050
H   9.110047630091 -4.280695529284 -3.860313499537
H   8.154674893957 -2.900063148586 -4.457653049598
H   7.108857260241 -4.147476910320 -6.232173624197
H   8.290478446479 -5.407841909053 -5.794026798241
H   6.412391685808 -6.415747161352 -7.021227035899
H   6.470783694850 -7.014010671905 -5.360133698569
H   4.667630234639 -5.377811856194 -4.708259087104
H   4.595759283452 -4.809281655780 -6.358021458019
H   4.073609456389 -7.710840767389 -5.510956839833
H   3.902758850951 -7.040804433871 -7.155724089042
H   1.575550434966 -7.227835000880 -7.355008894575
H   1.692227849690 -8.256324430819 -5.908729879761
H  -0.627521391196 -7.233151858903 -6.374506188241
H   0.092597430475 -5.646757761936 -6.085298047544
H  -0.962933098816 -6.220967568375 -4.055035292242
H   0.741771036536 -6.426451728161 -3.738539359426
H   0.514778714227 -8.902541769571 -3.992706100144
H  -1.178719033535 -8.689482278609 -4.503025429361
H  -0.855294457537 -10.330799481330 -2.351741761325
H  -2.385150095216 -9.511327432278 -2.776056158638
H  -0.966772328339 -9.543189302208 -0.073689155216
H  -2.181550506651 -8.348409899333 -0.451134193896
H  -3.136742243549 -10.222976242316  0.794190435446
H  -3.911550384412 -10.027123343617 -0.776625924286
H  -2.630543852361 -11.965462061305 -1.676754808511
H  -3.560685351820 -12.395490242053 -0.225943116848
H  -2.185637824355 -14.113594313762  0.493685270183
H  -1.332267774026 -13.964104860146 -1.065268493142
H  -0.014930421320 -13.509508165724  1.664426005578
H  -0.029285837609 -15.087633992156  0.860116735417
H   1.236560839509 -14.209758622297 -1.044838025451
H   1.112420213012 -12.565953995338 -0.454686894228
H   2.461503992555 -13.068241351561  1.513072537652
H   2.496849736124 -14.801163321205  1.101949020884
H   4.718048795020 -12.606462558735  1.276277149765
H   4.886967096837 -14.381370973910  1.245915558572
H   5.925819467988 -14.168992706106 -1.051001542923
H   5.877211381690 -12.428316691343 -0.898157166009
H   7.329254017513 -14.289146888966  1.056425625330
H   7.338626487813 -12.519917265794  1.121117562882
H   9.412916307773 -13.326849584124  0.108009260205
H   8.459068796504 -12.479184495101 -1.135889090572
H   9.767373279908 -13.769078728790 -2.725358827005
H   10.530280968566 -14.722183169543 -1.434449715312
H   10.579554605732 -16.074025062223 -3.396404759674
H   9.376448033285 -16.785861630786 -2.320599178339
H   8.770727438223 -16.700378167657 -4.762179568359
H   8.736191955619 -14.939032146336 -4.691979711095
H   6.839545323673 -15.049525047903 -3.065156490198
H   6.468131516023 -15.914113843668 -4.563503862463
H   4.840449721845 -17.290711764571 -3.203905518486
H   5.370090875085 -16.273451993647 -1.837801842106
H   6.319117004656 -18.303493506576 -0.716161651723
H   5.775765128166 -19.301012184502 -2.040967443699
H   4.252937714730 -19.497592058036 -0.138303175828
H   3.405782082977 -18.829477392511 -1.510091887508
H   4.581751133824 -16.957780436704  0.610523144445
H   3.329498014470 -16.633231961813 -0.593397459175
H   4.136692443951 -18.760975242302  2.117904973941
H   2.461214070843 -18.940746788317  2.640998698455
H   3.954590131645 -17.353167101020  4.040486769086
H   3.878846952900 -16.226605629034  2.679896756178
H   1.260729863889 -16.483416211883  2.876976460734
H   1.612405099076 -17.249020872018  4.426763203724
H   1.148481654391 -14.918752938879  4.851060787464
H   2.262165158201 -14.406155083942  3.562980475393
H   2.342820877282 -13.783205706681  6.607970114735
H   4.079481485672 -14.060034730536  6.736044207086
H   4.330558697686 -12.917461848265  4.431941646332
H   2.646870749733 -12.440520206234  4.572669371939
H   4.927792503530 -11.672978107374  6.443862886616
H   3.232921346094 -11.370177725716  6.848644241070
H   4.284068641445 -9.369525438583  5.885722052492
H   2.968688625550 -9.957602316537  4.837092575529
H   6.045496656664 -8.793650459453  3.374235037523
H   4.442246691915 -8.255011143006  3.873613248957
H   4.615421347279 -8.315772054264  1.424184443922
H   5.131402300085 -10.006410323562  1.458530324401
H   2.993457629319 -10.780002785559  2.203860070217
H   2.424735946376 -9.154068529731  2.588291440584
H   2.410447660493 -8.536516679561  0.208599278834
H   1.432821498820 -9.996604634996  0.487714246045
H   2.640366766076 -9.147422533684 -2.037658270254
H   1.744339192701 -10.668434331892 -1.812341367652
H   3.779897905668 -11.960343423045 -2.441233320678
H   4.698898331921 -10.477859134917 -2.581999392677
H   2.259397103449 -11.241790494182 -4.295368065291
H   3.135915433783 -9.708973064484 -4.411276944869
H   3.861584200067 -11.317463534269 -6.164145606779
H   4.369810888618 -12.468413558889 -4.899295302228
H   6.481710351085 -12.359320762382 -5.837904796189
H   6.272201496642 -10.951618409994 -6.911328477553
H   8.601967592229 -10.996522565700 -6.170834104427
H   7.792417254045 -9.626198604233 -5.397408908600
H   7.404282956336 -11.136400949638 -3.354644764006
H   8.389859893495 -12.356766063163 -4.149788202352
H   10.310606641747 -10.740046270411 -4.235067239346
H   9.827076204660 -11.133126475378 -2.590899341242
H   9.097061006906 -8.314195124184 -1.445354817732
H   8.196339285153 -9.828448446660 -1.592600065379
H   6.776164216811 -8.725184687302 -3.393332390795
H   7.671967033875 -7.243390678581 -3.159032456679
H   5.998933411466 -8.630396272062 -0.983711752468
H   6.856409302634 -7.113143752788 -0.783884421583
H   4.605365182108 -7.642393611675 -2.798990645777
H   5.501372115011 -6.108366467691 -2.639710629745
H   3.338184487861 -5.325393917887 -2.417500787478
H   2.439008039180 -6.778096169476 -1.922671413344
H   1.448100167259 -4.830531068215 -0.837218137896
H   2.240756085963 -5.829802825999  0.397496410462
H   3.538320744552 -3.397498474853 -0.918239382385
H   4.223539542288 -4.348140817988  0.384435817934
H   2.318040246074 -3.681153361847  1.873643896449
H   1.656187334068 -2.688389601367  0.542558360777
H   2.391876472949 -1.647054620375  3.051361623384
H   2.069553327251 -0.565630873191  1.667104040701
H   4.712949356883 -0.752271611895  3.192046562860
H   4.396562067147  0.353372052802  1.873566300385
H   2.758882661543  0.340252771828  4.459067780082
H   2.651232236296  1.531920808682  3.174332814157
H   4.908704705134  2.346739422712  3.627532622100
H   3.997511026617  2.365177280029  5.138668821454
H   4.068096276951 -0.144993631477  6.091279488689
H   5.116494798581  0.977778849068  6.986189527780
H   7.059696534173 -0.478950856216  6.623232463990
H   6.175652463474 -1.458405616800  5.471050207305
H   5.579971376558 -1.267226951711  8.477258603957
H   4.563754926652 -2.119250865496  7.340025243273
H   7.457875931693 -2.744832259002  8.074767124029
H   6.692144770860 -3.488341704732  6.667428656026
H   5.223553410508 -5.880380905432  8.723385387540
H   6.271875579176 -5.609604343930  7.332114014176
H   3.423835001432 -4.491215342392  7.678761744739
H   4.416587382293 -4.253247498413  6.254307523811
H   3.491469512396 -6.996079934397  7.263927242738
H   4.464292679069 -6.718345320419  5.834515767558
H   1.632232490349 -5.641008005975  6.288346593958
H   2.618056308792 -5.362454043973  4.825348197315
H   0.419976587230 -8.362091297460  4.436165181491
H  -0.006887633222 -6.884280559585  5.295618105391
H   0.872267782770 -5.529801202825  3.365010952177
H   1.398761276092 -6.991644325604  2.558753388305
H  -1.492149414799 -6.267905933656  3.268251828143
H  -1.016736266425 -7.795751151850  2.512946014270
H  -1.860123835375 -6.212744657479  0.824756065346
H  -0.139176534166 -6.545274682720  0.530605320727
H  -0.712182768786 -4.330094796744  0.428257540399
