67
pair_id=pair_3ea150d80d5c55174de7 start=1 nco_site=1 oh_site=1 attack_angle_deg=105.000000
O   6.618264355100  0.143538449800 -1.688772552200
C   5.816657291800  0.056693374400 -0.854090093000
N   5.168305460200 -0.077203069200  0.131054582300
C   3.854011754200 -0.052937900900  0.673130753600
C   3.208913872000  1.324955326500  0.505592565300
C   1.816479531100  1.330099716500  1.127972203900
C   0.915975883400  0.265277561500  0.494741769900
C   1.575300343600 -1.106616265900  0.646848687500
C   2.969563288100 -1.121854323200  0.026592232800
C  -0.471566668400  0.318794788400  1.144508880200
C  -1.531720426600 -0.614503699000  0.548593741600
C  -2.815889084600 -0.520079738200  1.377955627300
C  -3.901240110600 -1.443307734100  0.834788234600
C  -4.215431931400 -1.131031945700 -0.633160601400
C  -2.931460693800 -1.192021334500 -1.468816570500
C  -1.850234206100 -0.273002050300 -0.907919417400
N  -4.855865099800  0.132195613900 -0.765308668800
C  -4.715970678600  1.296887398100 -0.579600605500
O  -4.781695726700  2.452432031500 -0.482541701300
H   3.969545924300 -0.273189232200  1.741047915900
H   3.836149805100  2.083749329600  0.977052012800
H   3.142337409400  1.557949739500 -0.559917029900
H   1.898918572600  1.140301456600  2.200766512800
H   1.366995500400  2.316357678000  0.998420659100
H   0.822792117200  0.492510003800 -0.571700099600
H   1.645879490100 -1.356204628000  1.708123695400
H   0.969045823200 -1.872128855900  0.161264418100
H   2.901208685400 -0.921631752800 -1.045633449400
H   3.428518868200 -2.103936366600  0.155965136700
H  -0.843348377200  1.344547930400  1.077407088700
H  -0.362537387200  0.081373795700  2.206152281500
H  -1.171999744600 -1.647583393000  0.596726238500
H  -2.605958818300 -0.783409642800  2.416616017800
H  -3.176915567100  0.511493151300  1.366280192100
H  -4.810035213800 -1.341777785600  1.430961935200
H  -3.567918939900 -2.481073930500  0.896756635300
H  -4.936516961100 -1.862698729600 -1.016941204600
H  -2.574708747800 -2.223980911300 -1.464940239600
H  -3.156569269900 -0.914536712900 -2.500403691300
H  -0.955847295700 -0.371101252100 -1.524329068000
H  -2.184966647800  0.765627050600 -0.969067221100
C   2.429416167310  3.301851476307 -2.504149128192
C   2.422090767049  4.637343370051 -3.241444481106
C   1.104934369125  4.825445623670 -3.993236124413
C   0.892787418576  3.663806248783 -4.964467950466
C   0.900104592497  2.328346182865 -4.227126247401
C   2.217314932517  2.140256753067 -3.475439570418
C   2.240580185434  0.799058439362 -2.733166188129
O   3.465896388350  0.544692575450 -2.089314750537
C   1.081934714374  6.166585346042 -4.735619131215
O  -0.143116923090  6.420845723204 -5.380003147905
H   3.374400905029  3.168413717780 -1.974632300417
H   1.629437831656  3.292080762755 -1.760304367759
H   3.249617672732  4.669647513373 -3.954005731901
H   2.564296530503  5.453143905650 -2.529268063778
H   0.284303924258  4.824656586845 -3.263400670178
H   1.692738749746  3.673519417427 -5.708343007057
H  -0.052215752885  3.797254005008 -5.493952521300
H   0.072641577366  2.296107280627 -3.514487277206
H   0.757805075846  1.512519714168 -4.939249483753
H   3.037871245518  2.141226514003 -4.205358281921
H   2.001884476981 -0.013745643408 -3.436173860215
H   1.490283766755  0.795531727984 -1.938925976464
H   4.169398552160  0.569499284802 -2.747703376413
H   1.832534846681  6.170030493454 -5.529572510115
H   1.320349715362  6.979474382248 -4.032613868923
H  -0.846895975520  6.396102725174 -4.721898492687
