219
pair_id=pair_d2c043f5b3c834e8f59f start=4 nco_site=2 oh_site=2 attack_angle_deg=105.000000
C   0.284581330700 -2.856296821600 -1.075228802200
C   0.162525852300 -1.597457455400 -0.204947230400
C   0.845005092100 -1.904537770700  1.131145514700
C  -1.328669048700 -1.291252660800 -0.005722197300
C  -1.570475083400  0.087872243400  0.610820554000
C  -0.957110448900  1.181183157800 -0.269036073900
C   0.549683356000  0.994266183800 -0.497159448500
C   1.002261202900  1.956948628000 -1.604047402300
C   1.307902346100  1.391971275300  0.789954740500
N   2.703572888200  1.171113099200  0.732383851000
C   3.569168631800  0.422084370500  0.420855653800
O   4.549802891200 -0.154504117100  0.185714036600
C   0.831914196600 -0.441038993400 -0.968894226600
N  -2.963431143600  0.322177330700  0.785377568700
C  -4.013442667400  0.395831636900  0.235484889300
O  -5.116375984200  0.510373170000 -0.104212560000
H  -0.200973184600 -3.701335647600 -0.592771820900
H  -0.180392270100 -2.708228461400 -2.047427195000
H   1.331183276900 -3.106678504200 -1.231501354200
H   0.669336818000 -1.138529666000  1.878580217000
H   1.919144116400 -2.004976794700  0.992809095200
H   0.466878515000 -2.844074041600  1.529162011100
H  -1.834031280800 -1.321260360500 -0.974603031900
H  -1.780892848400 -2.056062502900  0.628522771700
H  -1.151102782700  0.129873374500  1.620567689400
H  -1.463600897200  1.156635133100 -1.237165534300
H  -1.148305840500  2.158375955300  0.179489575800
H   0.772454559600  2.985326617500 -1.333946347600
H   2.075584442100  1.874781849200 -1.759270064200
H   0.502011787900  1.732699420800 -2.543044673500
H   0.909588571900  0.871441133300  1.663883790100
H   1.176321145700  2.466024633200  0.954683369000
H   0.487257832900 -0.500634134700 -2.004285460000
H   1.911225245100 -0.607683746400 -0.987976068100
O  -5.089672011037  1.433942766822 -2.172722971091
C  -6.164388359843  0.580678840200 -2.509853486478
C  -5.800324017942 -0.441774239021 -3.579156414549
C  -6.978776467830 -1.295064340088 -4.034930288585
C  -8.015054447764 -0.477230579430 -4.792070793188
O  -7.427646896171  0.230655479065 -5.876576172363
C  -8.387398903778  0.943921448053 -6.650834302619
C  -7.743044996083  1.646276103205 -7.834874151845
C  -8.736377397528  2.384837662781 -8.721877704839
C  -8.045833756844  2.949337503142 -9.952565868357
O  -7.429381716678  1.915894621331 -10.715138113807
C  -6.527512149714  2.416371183083 -11.692939075583
C  -5.855365396778  1.295274307892 -12.472241901345
C  -5.208184875019  0.261140940843 -11.560763031006
C  -4.191005979446  0.882598769044 -10.615542505581
O  -3.236846702832  1.677226825897 -11.310286486679
C  -2.567225892358  2.602723880564 -10.463156089990
C  -1.576664334859  1.946516377349 -9.511885507018
C  -0.967974071302  2.923782503201 -8.510053505068
C  -1.996019400493  3.367197747186 -7.480466367698
O  -2.551231393054  2.247313310854 -6.799643355951
C  -3.907440121066  2.421090701523 -6.413277166885
C  -4.163493637205  3.671352094872 -5.567933100000
C  -5.347320441006  3.496737609720 -4.626352998236
C  -5.731953176790  4.793560089498 -3.928460923189
O  -6.308279676974  5.743247469934 -4.822249849980
C  -7.728671687047  5.823137097151 -4.731511667724
C  -8.451597814667  4.528792567194 -5.072389508063
C  -9.962764492422  4.603281425033 -4.882126906113
C  -10.630386726337  5.562759039344 -5.851475652228
O  -10.361305007336  5.229512540166 -7.208814980224
C  -11.159401325007  5.996418301585 -8.105874647883
C  -10.692765794353  5.902259182931 -9.546252084088
C  -11.515877319500  6.769942194817 -10.496917174445
C  -11.539714374497  8.236944320367 -10.073425931502
O  -12.459009814779  8.494171905134 -9.009866914944
C  -13.730548583699  8.909400667920 -9.498494767804
C  -14.818197901170  8.962096461301 -8.432228467776
C  -15.103039627300  7.592562809107 -7.816075992476
C  -14.140243624790  7.266980869434 -6.685441716621
O  -14.417755616489  8.031440057078 -5.519444585988
C  -13.487549033355  7.773988748476 -4.472229422903
C  -13.828597206823  8.545392092587 -3.207424186090
C  -12.786963668894  8.395053256107 -2.102715366206
C  -11.396506472436  8.813112982689 -2.567316910671
O  -11.410154075147  10.006258745204 -3.334360045707
C  -11.664806657249  11.173554662976 -2.569574709507
C  -11.650907595288  12.431328525411 -3.427695065369
C  -12.754183973277  12.450472944076 -4.479722231681
C  -12.536525883832  11.415254263340 -5.572446455831
O  -11.273467027852  11.575263255047 -6.204544580875
C  -11.126457133564  10.763469064898 -7.365945915478
C  -9.658625638388  10.576535365410 -7.727857392812
C  -8.945006214996  9.591012594185 -6.805148528010
C  -9.024899725669  9.970227853834 -5.333875950081
O  -8.274796347462  9.112590819067 -4.482741382780
C  -6.869500794297  9.265882548011 -4.652583633941
C  -6.073318705771  8.721286712706 -3.474836588814
C  -4.581116564791  9.032215171989 -3.575098156829
C  -3.900416648843  8.367838956814 -4.764028614533
O  -2.559515916070  8.816700325751 -4.917263419070
C  -1.908753163479  8.255187507730 -6.047133482552
C  -1.434253664370  6.831177827665 -5.806143285529
C  -0.556951435235  6.739052951032 -4.568718087272
C   0.026796135177  5.349334455658 -4.370062444125
O  -0.975016245447  4.354741893901 -4.198000260697
C  -0.405872482687  3.063365239115 -3.994881593491
C  -1.453902549262  1.992786436837 -3.735919310478
C  -0.851801324734  0.612525300238 -3.510174694647
C  -1.919822067136 -0.428570822281 -3.206500660289
O  -2.638805753036 -0.145457483268 -2.024466314168
H  -4.259479958976  0.901786765807 -2.083081086701
H  -6.986077028589  1.223100669860 -2.845746999920
H  -6.514831010646  0.083626737537 -1.596642576520
H  -5.384678221916  0.084479533742 -4.444925338551
H  -4.988027811690 -1.076180762387 -3.203916880301
H  -7.436528807306 -1.795682397741 -3.173078390234
H  -6.618486743777 -2.096561919274 -4.691881604184
H  -8.810706267141 -1.117665068528 -5.190748565188
H  -8.494040153378  0.256911163884 -4.135762378445
H  -8.893134162181  1.662485073694 -5.997516430282
H  -9.145293634401  0.231349913444 -6.994444791114
H  -6.974582354891  2.338938170312 -7.475583411535
H  -7.199253097101  0.907245224398 -8.434749601554
H  -9.240167142328  3.177054338821 -8.154349485336
H  -9.525183788717  1.693196048449 -9.038606789172
H  -7.271367369778  3.665324391936 -9.655750148691
H  -8.747181715635  3.478025631314 -10.608115981388
H  -5.778068592872  3.024128934876 -11.174268876674
H  -7.083164054573  3.089502355951 -12.356414376304
H  -6.598010524714  0.808033412386 -13.116264026009
H  -5.097878866074  1.714105466102 -13.146570221808
H  -4.714848722680 -0.509720740004 -12.165821153699
H  -5.984068438004 -0.257371120150 -10.983502924854
H  -4.697567772500  1.518630455037 -9.881162132859
H  -3.650481884803  0.113887002107 -10.051529446589
H  -2.054118262778  3.319834745396 -11.113846329266
H  -3.326976040153  3.174334123636 -9.920607617458
H  -2.078412390694  1.146556100955 -8.957273310641
H  -0.795511641236  1.449162833743 -10.099659484856
H  -0.132311754749  2.445399469686 -7.984726913608
H  -0.542586405999  3.787990697133 -9.034254727788
H  -1.553396464116  4.025034588695 -6.723954819211
H  -2.806967423488  3.926466153818 -7.958085950724
H  -4.528962406341  2.407667240173 -7.315609734979
H  -4.175180274577  1.520857678199 -5.849204570663
H  -4.325652054887  4.542761323337 -6.213101060629
H  -3.267022895088  3.910296203542 -4.984218974785
H  -5.110976164406  2.722641398191 -3.887479778453
H  -6.200021031278  3.111256052685 -5.192962400809
H  -4.843186881291  5.260325298789 -3.488299605878
H  -6.428582283026  4.620271519405 -3.099473342432
H  -8.038676493946  6.628488724723 -5.406386951120
H  -7.985704356938  6.156316170241 -3.720044942793
H  -8.222755189145  4.257472272969 -6.108645480881
H  -8.051475876208  3.717765626746 -4.454049318315
H  -10.401207833497  3.607277123627 -5.021317962535
H  -10.192217948207  4.888573357078 -3.847833100524
H  -10.285040532703  6.588932559508 -5.685376077252
H  -11.717605748493  5.563944471874 -5.712316042251
H  -12.194917820649  5.651424981141 -8.015493628418
H  -11.130730105202  7.039097762495 -7.772068343117
H  -10.713532263715  4.852864540600 -9.863271061799
H  -9.638222075067  6.198368420741 -9.591239357824
H  -11.121988406395  6.675967330559 -11.517560534739
H  -12.545088523314  6.397229826203 -10.540093982090
H  -11.791748050725  8.898345986735 -10.911396488938
H  -10.545165347924  8.542361963032 -9.733070037230
H  -14.024661739356  8.219958740022 -10.297477938007
H  -13.592987133834  9.893423332414 -9.962761005887
H  -15.735625907242  9.379720604509 -8.868530043816
H  -14.522708708723  9.657023330179 -7.638404742184
H  -15.060580594708  6.824231355368 -8.598036971921
H  -16.123179908711  7.556038543319 -7.413688088736
H  -14.188498941655  6.207114212974 -6.408864116372
H  -13.113824140785  7.490894098682 -6.989424363141
H  -12.493987521318  8.050633583801 -4.840630835180
H  -13.472069126365  6.696657369387 -4.274980072226
H  -14.820250687592  8.238035782025 -2.853900041256
H  -13.934955831822  9.603271665638 -3.469754495762
H  -13.082432366981  8.996475989646 -1.234144810180
H  -12.766402662113  7.358194962814 -1.744769467725
H  -10.957587999076  8.044243389212 -3.214061840575
H  -10.699066424942  8.940670299379 -1.731115507779
H  -10.904023794934  11.225329191762 -1.781724053678
H  -12.635015920128  11.060021165177 -2.075765186968
H  -11.723173894231  13.319756232236 -2.786414994712
H  -10.681554326740  12.501267745116 -3.934157787776
H  -12.798586780268  13.441865956996 -4.947846191039
H  -13.729117602512  12.301254661552 -3.999906920953
H  -13.317022537770  11.472781710932 -6.340077885529
H  -12.559286422704  10.402917204885 -5.157192425359
H  -11.603342990382  9.793431675035 -7.184581252808
H  -11.684677167752  11.251919232675 -8.173602568739
H  -9.164795564926  11.553393380664 -7.672309304474
H  -9.558647423093  10.254698885153 -8.771779238545
H  -9.364626566019  8.587181771533 -6.934013111332
H  -7.894250831215  9.502196781336 -7.103030654130
H  -8.687307858958  10.999630055667 -5.171667711510
H  -10.062193719948  9.934928127127 -4.981969837377
H  -6.652400757216  10.331006709217 -4.790020814792
H  -6.587546998158  8.756956131110 -5.579597278928
H  -6.490439192457  9.136922968822 -2.549646183716
H  -6.225115987980  7.639879616918 -3.402250157667
H  -4.436729803807  10.115905816764 -3.651061289151
H  -4.059569309075  8.736955011802 -2.656680283139
H  -3.900666704918  7.278580360579 -4.654520248480
H  -4.432019685437  8.597047518783 -5.693046276377
H  -2.578881362450  8.326112234680 -6.911829844809
H  -1.053455673102  8.906241850909 -6.261843817477
H  -2.292021327537  6.160145857123 -5.692552923948
H  -0.885168083039  6.460979082854 -6.680812886072
H   0.246712587424  7.483099779019 -4.632566561376
H  -1.147312735833  7.018708164772 -3.688565326623
H   0.634418860659  5.063695778676 -5.236016929281
H   0.682329172072  5.321180844315 -3.491559055028
H   0.289086855584  3.126588776600 -3.150235300201
H   0.187732922873  2.812155376271 -4.880955491296
H  -2.066270985012  2.281850964350 -2.874469623703
H  -2.145587034622  1.955292410901 -4.582589701900
H  -0.137025859441  0.655221320526 -2.680636764998
H  -0.266911085479  0.317201947641 -4.390113672791
H  -2.648869443011 -0.470936100999 -4.024206683582
H  -1.491986979857 -1.436465282628 -3.122465486978
H  -2.015673116798 -0.089123652203 -1.264595007757
