395
pair_id=pair_d0340fb5d58cddfcd8e1 start=2 nco_site=1 oh_site=2 attack_angle_deg=105.000000
O   6.618264355100  0.143538449800 -1.688772552200
C   5.816657291800  0.056693374400 -0.854090093000
N   5.168305460200 -0.077203069200  0.131054582300
C   3.854011754200 -0.052937900900  0.673130753600
C   3.208913872000  1.324955326500  0.505592565300
C   1.816479531100  1.330099716500  1.127972203900
C   0.915975883400  0.265277561500  0.494741769900
C   1.575300343600 -1.106616265900  0.646848687500
C   2.969563288100 -1.121854323200  0.026592232800
C  -0.471566668400  0.318794788400  1.144508880200
C  -1.531720426600 -0.614503699000  0.548593741600
C  -2.815889084600 -0.520079738200  1.377955627300
C  -3.901240110600 -1.443307734100  0.834788234600
C  -4.215431931400 -1.131031945700 -0.633160601400
C  -2.931460693800 -1.192021334500 -1.468816570500
C  -1.850234206100 -0.273002050300 -0.907919417400
N  -4.855865099800  0.132195613900 -0.765308668800
C  -4.715970678600  1.296887398100 -0.579600605500
O  -4.781695726700  2.452432031500 -0.482541701300
H   3.969545924300 -0.273189232200  1.741047915900
H   3.836149805100  2.083749329600  0.977052012800
H   3.142337409400  1.557949739500 -0.559917029900
H   1.898918572600  1.140301456600  2.200766512800
H   1.366995500400  2.316357678000  0.998420659100
H   0.822792117200  0.492510003800 -0.571700099600
H   1.645879490100 -1.356204628000  1.708123695400
H   0.969045823200 -1.872128855900  0.161264418100
H   2.901208685400 -0.921631752800 -1.045633449400
H   3.428518868200 -2.103936366600  0.155965136700
H  -0.843348377200  1.344547930400  1.077407088700
H  -0.362537387200  0.081373795700  2.206152281500
H  -1.171999744600 -1.647583393000  0.596726238500
H  -2.605958818300 -0.783409642800  2.416616017800
H  -3.176915567100  0.511493151300  1.366280192100
H  -4.810035213800 -1.341777785600  1.430961935200
H  -3.567918939900 -2.481073930500  0.896756635300
H  -4.936516961100 -1.862698729600 -1.016941204600
H  -2.574708747800 -2.223980911300 -1.464940239600
H  -3.156569269900 -0.914536712900 -2.500403691300
H  -0.955847295700 -0.371101252100 -1.524329068000
H  -2.184966647800  0.765627050600 -0.969067221100
O  -2.690263149990  1.359830675845 -10.529554963469
C  -3.616539302209  1.233805570031 -11.580952710784
C  -3.405243382950  2.246294538788 -12.705768694361
C  -2.156885498734  1.999306549562 -13.569612829240
C  -0.851988332283  2.562380969824 -13.003053333196
O  -0.310067240713  1.837005126368 -11.904542809364
C   0.381653588621  0.657799901007 -12.298229797715
C   0.692173005268 -0.240830354544 -11.110548452412
C   1.546377362726  0.465931508483 -10.067357986874
C   1.884881394939 -0.415591078979 -8.875790688781
O   2.635901952690  0.270632862982 -7.882883850087
C   3.990439215193  0.510530866784 -8.271008985805
C   4.426941992065  1.948118706757 -8.028927426244
C   5.883667460689  2.182305525232 -8.422846332416
C   6.445380761035  3.504870485732 -7.920182345549
O   5.894178933663  4.650594222350 -8.559455061832
C   6.485988853775  5.845330693391 -8.051068436402
C   5.995415449850  7.116281711641 -8.731205938573
C   6.507431766175  8.368627282865 -8.028549777247
C   5.893692513230  9.651278858231 -8.566265556244
O   6.186891398877  9.867224816981 -9.942066027207
C   5.956812991971  11.217117427427 -10.335414445204
C   5.981308387891  11.396917680981 -11.846571903148
C   4.799140232101  10.715912075230 -12.527244845119
C   4.809477809911  9.205649392982 -12.364211995235
O   3.660309159941  8.595574100128 -12.939482455278
C   3.617595218532  7.195316953103 -12.689496953542
C   2.293491213955  6.580251516092 -13.112855586276
C   2.193281778891  5.091575133789 -12.797818753798
C   2.420693202369  4.816987178921 -11.318511211484
O   1.692681663938  5.706912751407 -10.487353598206
C   0.310962854933  5.401223553535 -10.374225292669
C   0.077360587080  4.084970894073 -9.648515015834
C  -1.317152828082  3.924203301565 -9.059439322754
C  -1.338733607968  2.739626438880 -8.105407969071
O  -0.290498395778  2.861577160209 -7.150982209375
C  -0.166220939719  1.730117533230 -6.298163529116
C   1.008876879496  1.883572379107 -5.345239442526
C   1.186372004915  0.704772762926 -4.393675688022
C   1.619906824038 -0.571702131542 -5.096652389562
O   1.925308894449 -1.603283950214 -4.165651358478
C   2.313751341587 -2.819252315285 -4.793546242036
C   2.943365663012 -3.771770076366 -3.790248026422
C   2.000470875143 -4.105768174619 -2.643611696011
C   2.732200723149 -4.821981097606 -1.518388404064
O   3.778976217913 -4.002579581641 -1.010927071700
C   4.694877786534 -4.685575009862 -0.162209616413
C   5.914752709921 -3.815062926933  0.098241312021
C   6.553898186549 -3.388379640330 -1.217204579358
C   7.639701189705 -2.337610404549 -1.059251895498
O   8.095525067539 -1.869951824263 -2.321471381878
C   9.095104438701 -0.865815307641 -2.230102248777
C   8.656398505366  0.375340910131 -1.455309310453
C   9.487347388886  1.613245131204 -1.781321535758
C   9.127144585858  2.169327423482 -3.150073701744
O   7.788823231818  2.665738641983 -3.172467618262
C   7.173833496758  2.581865871486 -4.454375108598
C   6.278293130950  1.359585877677 -4.590710364751
C   5.151520969739  1.332909043755 -3.562130086181
C   4.366820205838  2.637766733778 -3.520098534657
O   3.891973952164  3.023404693597 -4.806961885912
C   3.615308177545  4.420391983471 -4.891267395073
C   3.143306678847  4.831826975611 -6.278792522743
C   3.098689348546  6.342071047953 -6.473670941310
C   2.575082912173  6.740522790174 -7.850560763829
O   3.033034962655  8.029296696308 -8.252127525386
C   2.243450458272  8.592611642041 -9.291675669297
C   1.057955423824  9.353699169879 -8.726344485242
C   1.537626088744  10.420182916961 -7.753726569380
C   0.414586634954  11.202436701082 -7.095883796054
O   0.918580805472  12.171979276419 -6.182073600668
C  -0.080595935650  13.042481343825 -5.671912036150
C  -0.711373118351  13.917610389035 -6.747396463279
C   0.351858930817  14.581830138791 -7.614452148266
C  -0.213330057081  15.248120941893 -8.860494836174
O   0.758762255744  15.933102340965 -9.639829780769
C   1.839115855923  15.102119119670 -10.047020315587
C   2.753686190515  15.784759981861 -11.051429480938
C   3.988584569585  14.956502910761 -11.399259511870
C   4.863664028143  14.688897034930 -10.181319848718
O   4.235159800093  13.804398934099 -9.258791058358
C   4.864660164883  13.802240118333 -7.980967919417
C   4.187352221268  12.843972158742 -7.014093945962
C   4.861668607251  12.801475321845 -5.649119840417
C   4.186913714700  11.832342500887 -4.691278495320
O   4.852864771755  11.753664813380 -3.431288608827
C   4.084276170856  11.039162244300 -2.473462383058
C   4.844164126911  10.698263239588 -1.198376604114
C   5.400616732467  11.920863061014 -0.477802336376
C   6.642507614105  12.470561707491 -1.158515545974
O   7.727303382098  11.545277642692 -1.116461490218
C   8.847447353344  11.956970698286 -1.903973572445
C   8.981094246393  11.150954661118 -3.190218332954
C   7.676206528125  11.103397551840 -3.963570606065
C   7.771054082640  10.324943377469 -5.266755997405
O   8.401419027161  9.060817645578 -5.143209036531
C   7.740094189379  8.159661012338 -4.261310840299
C   8.473543840864  6.826713705247 -4.204733837302
C   7.958425675173  5.879221041556 -3.125110579721
C   8.166778682852  6.405765103755 -1.708450954167
O   8.043114121731  5.410928172783 -0.699482549664
C   6.847803793405  4.651979278859 -0.815889704562
C   6.537296053629  3.834046628809  0.429285984856
C   5.331707735200  2.917269612860  0.233039951517
C   4.029651019903  3.679265687960  0.029817295765
O   2.969606680656  2.842068543408 -0.418423134237
C   1.706825094288  3.504391199530 -0.363046789415
C   0.716399482523  2.946901484798 -1.371677868595
C  -0.678985975649  3.538917132118 -1.225612248642
C  -1.598112944812  3.080147967982 -2.345838254451
O  -1.113684775247  3.449203066763 -3.629204902855
C  -1.386886626899  4.808244653625 -3.957593090654
C  -0.743087534679  5.215236506879 -5.273917440256
C  -1.137363817293  6.608031798615 -5.750250614952
C  -0.599211912451  7.697914787526 -4.837212709847
O   0.812637616365  7.610624930476 -4.700005821211
C   1.391635462200  8.757521256418 -4.097734657278
C   0.963032102756  8.961717081976 -2.654249192727
C   1.219293902036  7.735639777705 -1.783204803596
C   2.683535540418  7.305850069705 -1.740108558735
O   2.964716308508  6.461240317949 -0.629594050693
C   3.254300184052  7.198947951004  0.555022201927
C   4.731216351647  7.547385958557  0.668966544746
C   5.047043855542  8.511347839629  1.805374051286
C   6.547061369859  8.724753951961  1.924692983356
O   7.197054651996  7.489833570737  2.207337194558
C   8.572964586629  7.469968347170  1.849254827336
C   9.162496193043  6.090549865459  2.095031352974
C   9.050060272409  5.691383995770  3.559288288507
C   9.252319027293  4.198312360407  3.768672630468
O   8.185309992761  3.450980082004  3.197773632454
C   8.291860152599  2.050587247844  3.431933288485
C   9.213473391363  1.355849758846  2.442262203238
C   9.285653763915 -0.157405378824  2.630066001652
C   7.925792615270 -0.845474754911  2.556802327266
O   7.202038328660 -0.535893836339  1.386347315270
H  -1.800126289296  1.500996992787 -10.932082415469
H  -4.612362454158  1.340635374435 -11.131934150665
H  -3.562238825366  0.208302248573 -11.967733495049
H  -4.296241027191  2.244534420934 -13.348756545631
H  -3.360688327446  3.254062348672 -12.278679036247
H  -2.051531563793  0.926306559380 -13.757534910422
H  -2.319926274814  2.443994418057 -14.561499720365
H  -1.011518161103  3.589994332211 -12.659767231156
H  -0.072505346122  2.615044520458 -13.772724825347
H  -0.220644498571  0.127391684675 -13.043414709472
H   1.305971875044  0.971313462125 -12.796086666529
H   1.195608676544 -1.156730329239 -11.443785941191
H  -0.246465901017 -0.568998636790 -10.649454695754
H   1.028421945300  1.359088420777 -9.706086571022
H   2.463360443121  0.840900551764 -10.534009254171
H   0.968555188338 -0.777262105930 -8.396742953975
H   2.444635851878 -1.306494476115 -9.181237330915
H   4.615921519440 -0.184064294298 -7.698140375887
H   4.127275896917  0.242489285125 -9.324058390255
H   4.277268205456  2.185385760083 -6.970191777256
H   3.769162804384  2.634301696421 -8.573907363483
H   5.985513490593  2.134571336292 -9.512888698130
H   6.492771995320  1.354939987306 -8.036665963795
H   7.532015100345  3.542260710009 -8.064458634716
H   6.261739176675  3.608368141470 -6.846196561962
H   7.573900641882  5.760387880838 -8.150809404298
H   6.272821126866  5.884891607615 -6.976916940488
H   4.902445173537  7.120877395497 -8.743508138455
H   6.290529286042  7.121004457577 -9.786288099001
H   7.598387189702  8.420647068825 -8.119395937462
H   6.305364496191  8.282492967722 -6.954459074869
H   6.253012743940  10.521199256254 -8.004286212573
H   4.803396375316  9.626666772995 -8.462822086520
H   6.724694714297  11.830650129160 -9.849654724863
H   4.986760541211  11.530506991580 -9.932709384735
H   5.995983920480  12.464814285450 -12.099688440518
H   6.917534138071  10.983371344428 -12.237673873786
H   4.772967380421  10.957362203227 -13.596849229145
H   3.860698458650  11.108714121962 -12.119222605167
H   5.700228373061  8.767556611898 -12.827826024567
H   4.837133720618  8.938271863653 -11.302488503036
H   3.783312148061  7.044412235046 -11.617261257243
H   4.455971881106  6.726170885858 -13.215981452133
H   2.132445831433  6.767069391031 -14.181352490000
H   1.488086930049  7.117277222262 -12.598830545192
H   1.207383497399  4.716427240336 -13.095726185196
H   2.916386974497  4.528556167294 -13.400916948993
H   2.183179812928  3.782761550242 -11.048189062716
H   3.477159725115  4.955680705041 -11.059855918289
H  -0.148674076367  5.412538098757 -11.367562561644
H  -0.143820679252  6.226820628710 -9.815230939669
H   0.295736991044  3.244697990887 -10.313833236826
H   0.809087234084  4.008089537376 -8.834948860888
H  -1.585184233651  4.833746038963 -8.510124008698
H  -2.067633497377  3.816563799008 -9.851671920737
H  -1.187033522673  1.801467269583 -8.649726422873
H  -2.292359136949  2.658917636415 -7.571164961701
H  -0.047176086500  0.842188857646 -6.926659022930
H  -1.104446433635  1.618721124577 -5.743253270630
H   1.925372154509  2.026956157104 -5.928702711065
H   0.874812336126  2.812049369702 -4.778719968875
H   0.257338277409  0.520971048907 -3.842731278073
H   1.932833509675  0.943340055707 -3.627194924802
H   0.840260624800 -0.938318576206 -5.772389150820
H   2.515208089374 -0.388624020232 -5.701781205203
H   3.010466370177 -2.582185207973 -5.606490617424
H   1.419573588303 -3.261022063450 -5.246733745513
H   3.289031976791 -4.690802299685 -4.279205022809
H   3.840785562593 -3.298499254891 -3.375126098114
H   1.149564504981 -4.695327397199 -3.005856516762
H   1.577694023922 -3.171898336446 -2.254580090018
H   2.063574718165 -5.071342824131 -0.686467021149
H   3.169593754208 -5.757647054131 -1.882917371527
H   4.990267897070 -5.617333645888 -0.656610388624
H   4.172615334037 -4.952593070990  0.763613317570
H   6.645351911798 -4.328412229559  0.734898296352
H   5.605310304140 -2.921468024088  0.652931671924
H   6.953637101341 -4.258680424422 -1.749552665264
H   5.776347983056 -2.985245991273 -1.876572040955
H   8.495151844735 -2.728482736832 -0.497924031077
H   7.246205072776 -1.481630918770 -0.503389242264
H   9.351413061256 -0.607242958402 -3.262575550762
H   9.996756102996 -1.311437431523 -1.794918386881
H   7.606883507289  0.585486993569 -1.686453937343
H   8.684428216911  0.160613728060 -0.381287398773
H   9.313658769079  2.397606901951 -1.034459174052
H   10.555326229897  1.370313236454 -1.724464472884
H   9.790828490052  2.992436706870 -3.439893150226
H   9.227354861597  1.397065128330 -3.919219973985
H   7.953609414567  2.607670787342 -5.225131508658
H   6.590092477466  3.498784877418 -4.585612674969
H   5.847220729007  1.332064656529 -5.597473171528
H   6.886245272810  0.450807074279 -4.503859864009
H   5.562373577218  1.116908397199 -2.569662564975
H   4.467107631658  0.504597131438 -3.784014736527
H   3.503307650055  2.571975052752 -2.847787149492
H   4.996997942364  3.445119242724 -3.132578682599
H   4.531816643460  4.961431084043 -4.631714925886
H   2.868323001758  4.671480348840 -4.130008807350
H   3.817487879236  4.400482022993 -7.025485474314
H   2.163237399438  4.390105086618 -6.488531500467
H   4.102737990443  6.759442221450 -6.339568503431
H   2.490582472301  6.810695712859 -5.693850655037
H   1.480543590304  6.718262149263 -7.873215776159
H   2.916188237318  6.031621488136 -8.614280143590
H   2.893981333981  9.268075628876 -9.858305762152
H   1.942690169583  7.794776580046 -9.980093383642
H   0.382718663688  8.664143972530 -8.208360672927
H   0.464861476445  9.807672249717 -9.529659172526
H   2.159869798773  9.956093148360 -6.980088516689
H   2.202081206191  11.117396267536 -8.275738507970
H  -0.182896719721  11.704830764322 -7.862049331784
H  -0.261784448278  10.537272147582 -6.549905611546
H   0.415905123598  13.665236478969 -4.918942481726
H  -0.826167250916  12.439514235274 -5.140650296853
H  -1.365892444838  14.675954949262 -6.299968146169
H  -1.370908097577  13.313668005885 -7.380560796555
H   0.916951486299  15.313839526812 -7.026620681774
H   1.084755677643  13.823002967578 -7.907509456085
H  -0.708719163985  14.515393359519 -9.507240100895
H  -0.975975499333  15.985632672985 -8.586999976394
H   1.433592884920  14.171425371706 -10.459019148558
H   2.408008958027  14.840109548741 -9.149810787023
H   3.062796093525  16.752651495176 -10.640557596962
H   2.177898939177  16.024832079237 -11.953436265776
H   4.572737968727  15.460230489353 -12.180451027903
H   3.677215765242  13.997370291332 -11.827764173211
H   5.086358335345  15.628367452240 -9.663684523045
H   5.824879569572  14.243989377593 -10.462682066492
H   5.917957524872  13.534703435473 -8.118204617629
H   4.841821496527  14.823779037543 -7.585906131828
H   4.176677760339  11.840683668741 -7.451636244494
H   3.132996388151  13.119103167574 -6.902122369800
H   5.913692902748  12.525434215182 -5.771118834093
H   4.876950510578  13.802098401195 -5.202716277349
H   3.147207916009  12.132151871606 -4.516195552079
H   4.158876854451  10.824034607652 -5.119635051226
H   3.722577387628  10.127419774068 -2.960430436745
H   3.206442361164  11.652768135067 -2.241652537653
H   5.672433507869  10.021450117399 -1.435954420407
H   4.179635438376  10.139665686345 -0.527317925108
H   5.663026304990  11.662507479483  0.555762786780
H   4.623577348694  12.691884301356 -0.407556299294
H   6.424978608855  12.705254367403 -2.204969872141
H   6.981027791089  13.397844137420 -0.681291399500
H   9.741256276513  11.855025555605 -1.276630814492
H   8.744341019595  13.025667125919 -2.124329420083
H   9.778816801350  11.558843386504 -3.823046120671
H   9.295344975652  10.129085231461 -2.950390347982
H   6.900740237316  10.663298460206 -3.327409952167
H   7.334658512974  12.126221967417 -4.159863592249
H   6.781742012680  10.170335638529 -5.710740453194
H   8.361642795323  10.884497436638 -6.001416675846
H   7.699131686286  8.615167406406 -3.267983683704
H   6.704870938796  8.029499973783 -4.594664595582
H   9.538253901538  7.025205555689 -4.036467445214
H   8.425460008043  6.352430290192 -5.192603724384
H   6.896430604050  5.668934149188 -3.293850035498
H   8.465521619505  4.911447026338 -3.208299158945
H   7.465270683589  7.214188562514 -1.473933209892
H   9.172891733719  6.827199014446 -1.603874262101
H   6.029797201969  5.340556045524 -1.050080993994
H   6.967459185958  3.986162554354 -1.676780442331
H   6.370944683817  4.503518718419  1.280387853073
H   7.425402500019  3.249849435348  0.694537913305
H   5.502304539108  2.273107301129 -0.635407457953
H   5.216876693012  2.231858604604  1.081237140113
H   3.719687544616  4.169508219882  0.959460460659
H   4.144994176470  4.466635832342 -0.722333210037
H   1.326225617591  3.401610905735  0.659244980832
H   1.863519273639  4.574754308336 -0.539570079732
H   0.675344238829  1.856055412680 -1.275782801895
H   1.090159242700  3.132735841878 -2.384524016140
H  -0.611617638023  4.631934813924 -1.222122060637
H  -1.097418795365  3.270500923450 -0.247573984299
H  -2.615885168717  3.471075758062 -2.231022499079
H  -1.679616725925  1.987201232351 -2.344450613822
H  -2.474716656129  4.926340793938 -4.010822335451
H  -1.034111481326  5.445046390205 -3.141633522318
H  -1.003002706831  4.465990498020 -6.028880902317
H   0.345466308416  5.159907205195 -5.169461493503
H  -0.748896576972  6.774686096367 -6.762240731077
H  -2.228721407868  6.680012136549 -5.833291194222
H  -1.040970454261  7.616939919671 -3.839178026533
H  -0.850890074154  8.693487879617 -5.219460172371
H   1.153826258212  9.628552173691 -4.719152702239
H   2.476920301629  8.623741126296 -4.160784901488
H   1.482697965815  9.828669246702 -2.228806309740
H  -0.100914776156  9.225560107733 -2.623365267501
H   0.873060509023  7.927453097134 -0.760694856936
H   0.613868282000  6.892480614184 -2.133341373388
H   3.346859274699  8.174341470988 -1.688370260142
H   2.960505464224  6.761745920131 -2.650340290886
H   2.931659612671  6.594969679844  1.410654625389
H   2.638183222900  8.104334497484  0.568789035423
H   5.312647374587  6.628821469906  0.802720551120
H   5.087586878972  7.961658905778 -0.279545844161
H   4.666872426185  8.100121319969  2.747277411406
H   4.522564032798  9.463122270427  1.660719416842
H   6.950728831493  9.127046607163  0.988666015677
H   6.802285120383  9.431547611708  2.722714959884
H   8.657458349063  7.757000312702  0.795018616522
H   9.088867310414  8.231494080596  2.443908536208
H   10.204783270618  6.034540727607  1.757893104465
H   8.613545416969  5.364327082138  1.485361591719
H   8.049797574334  5.959320556087  3.920033858064
H   9.753243225904  6.277071350023  4.164358599988
H   9.299915005783  3.953416564143  4.836235461362
H   10.191869979964  3.868635411308  3.313955924237
H   7.275129943969  1.649382780433  3.361742053613
H   8.616380980520  1.883433898661  4.464736897862
H   8.875261671803  1.589169473118  1.427751852072
H   10.216509497905  1.793014191765  2.509846081320
H   9.764083765456 -0.386172449930  3.590519902555
H   9.942563240435 -0.588399899709  1.864357013143
H   8.040716592307 -1.936623893627  2.580067190846
H   7.305740767967 -0.593904682303  3.426638240833
H   6.952050609562  0.416067850232  1.384470481508
