142
pair_id=pair_40af32527bfdc13057fd start=1 nco_site=1 oh_site=1 attack_angle_deg=105.000000
C   0.159883306100  2.323753869400 -0.000995589400
C  -0.915882950700  1.477548341000 -0.000889906500
C  -0.733639648400  0.081070027900 -0.000518832500
C   0.583222895200 -0.449703940800 -0.000364756500
C   0.783355439400 -1.844419106000 -0.000205264700
C  -0.284573324100 -2.698870241200 -0.000232302300
C  -1.590540479800 -2.199499701100 -0.000313781500
C  -1.818214859700 -0.843116478200 -0.000342842400
N  -3.121474537100 -0.417891108100 -0.000126661600
C  -3.872846675800  0.506806114300  0.000830545000
O  -4.755064004400  1.257563566600  0.001595702000
C   1.674770097700  0.460296976500 -0.000398062000
C   1.463863819100  1.820274224000 -0.000699877800
N   2.939587000300 -0.071992494900 -0.000175286400
C   4.110474945300  0.148126150600  0.000736432600
O   5.267788579400  0.154240520700  0.001452554500
H   0.010107250600  3.392630684300 -0.001358245900
H  -1.917456576800  1.881777715100 -0.001153599100
H   1.795046022600 -2.219835175600 -0.000080892500
H  -0.129086437300 -3.766877366400 -0.000148362900
H  -2.432680020500 -2.873840173600 -0.000261212800
H   2.307590927200  2.494321811000 -0.000741655800
O  -2.144999027948  1.460812441558 -1.841563124486
C  -1.235689575732  1.962874629696 -2.811154384717
C  -1.229701207938  3.485511316640 -2.783666264167
C  -2.610262058907  4.130035773013 -2.956437073155
C  -3.358546032594  3.694429335833 -4.211874210116
O  -2.533568007253  3.909237054902 -5.355484252284
C  -3.198397409219  3.540892316690 -6.562822161934
C  -2.254757372945  3.805474978304 -7.729883659429
C  -2.881978322417  3.394958782847 -9.062658825458
C  -1.947351734085  3.651098500162 -10.240571271056
O  -1.732627839915  5.054327431970 -10.370034571520
C  -0.856545103057  5.359237172049 -11.453226303950
C  -0.648765386464  6.868493261377 -11.525343502029
C  -1.957704242224  7.620253958431 -11.791713768927
C  -1.744719996918  9.131132137779 -11.873331803276
O  -0.808100003793  9.494767542481 -12.886752886774
C  -1.369982583405  9.509824055798 -14.198298980844
C  -0.275266888129  9.931597085076 -15.173126388957
C  -0.718822745482  9.911837115549 -16.633156207265
C  -1.781913512582  10.955131642345 -16.962395075900
O  -2.057527601824  10.871985594573 -18.360482170372
C  -3.096337199213  11.750177028709 -18.788887920548
C  -2.665770908633  13.215930849547 -18.839692575829
C  -1.396380975219  13.421890445275 -19.672827409661
C  -1.024458286597  14.896348217706 -19.801568070902
O  -0.769517228671  15.432506637093 -18.504680481250
C  -0.387003970174  16.807019570544 -18.529315509372
C   1.114108306139  16.946681076692 -18.767711527934
C   1.555242034733  18.404924328578 -18.707923187429
C   3.056463408410  18.548276453811 -18.925598482873
O   3.380228906542  19.936358725225 -18.875775570779
C   4.773642184161  20.164241259369 -19.062425897591
C   5.048827268943  21.664910704113 -19.024198707574
C   4.242322980675  22.486884262655 -20.033897111909
C   4.494317430783  22.085897421516 -21.485730634286
O   3.788661281655  22.953055111062 -22.374231254341
C   4.503044902691  24.136116191060 -22.727241485778
C   5.448546555599  23.892264057457 -23.902964543243
C   4.705321748294  23.390022525464 -25.145908279832
C   5.650545809137  23.140436600901 -26.320160991464
O   6.414207640565  24.295310646107 -26.663384121384
C   5.686180092690  25.248250065182 -27.433183899412
C   6.611930977559  26.407758387950 -27.794935509760
C   7.776759456583  25.959928274302 -28.686319856469
C   8.638000184231  27.127887899749 -29.155927295887
O   9.366871709977  27.701682654653 -28.080638034003
H  -2.064704978685  0.491735973573 -1.854781860740
H  -0.235485671641  1.583689691455 -2.577439985646
H  -1.523710119220  1.581275169909 -3.795347805360
H  -0.544135710579  3.855858587248 -3.554713290650
H  -0.830077176573  3.819559673038 -1.817930269915
H  -2.462929014655  5.216742433013 -2.993409553523
H  -3.232863653473  3.924963815064 -2.077827297229
H  -3.636646338068  2.636568915825 -4.149311613433
H  -4.277003225709  4.285221545991 -4.307564310045
H  -3.463036053321  2.478001291288 -6.522410497093
H  -4.113639840939  4.133659117755 -6.673736844909
H  -1.316510721155  3.259562431158 -7.569905831664
H  -1.985241075884  4.868748934042 -7.739306293518
H  -3.810715565294  3.960037380296 -9.207925744449
H  -3.140269071273  2.330082974814 -9.034997599271
H  -0.990453309943  3.139092329407 -10.086854331256
H  -2.408005616598  3.270650814829 -11.159333857998
H   0.109048622526  4.867294824181 -11.289578081554
H  -1.286272490954  4.989744817725 -12.391458104801
H  -0.227637616956  7.220203257438 -10.575634719553
H   0.079952130680  7.087259260018 -12.313900394570
H  -2.679899936488  7.412760369471 -10.993662101281
H  -2.395949343916  7.251099172222 -12.725364403172
H  -2.697007645454  9.650587497816 -12.031712227649
H  -1.339120719242  9.489942525636 -10.920935429168
H  -2.203022937303  10.219782000031 -14.222040182607
H  -1.738460338275  8.513388730012 -14.461488500388
H   0.094416237994  10.928468515338 -14.902224631149
H   0.582809527401  9.257986556746 -15.052373858612
H  -1.086466604041  8.914176226070 -16.904061958441
H   0.155388499516  10.085613713338 -17.273629770299
H  -1.410358024309  11.953456387346 -16.710999240814
H  -2.702388168705  10.760312310542 -16.402758641256
H  -3.979218847563  11.627202336740 -18.150797849043
H  -3.384869640788  11.428342856759 -19.795698733620
H  -3.486646269570  13.809589180596 -19.259241278710
H  -2.496475925177  13.584836749448 -17.822126742065
H  -1.537304195464  12.999023095669 -20.674136206274
H  -0.564496479956  12.886779002774 -19.199566470634
H  -0.131003973468  14.986895165604 -20.427635502809
H  -1.842874508963  15.451326921877 -20.274368697092
H  -0.970452105612  17.359499234413 -19.275254145559
H  -0.637905922516  17.221506542182 -17.546801490783
H   1.382346887288  16.518540139864 -19.740156232832
H   1.654969521205  16.354355698123 -18.019199772577
H   1.286601240334  18.844878466522 -17.739328353293
H   1.020371175043  18.993839397872 -19.463639762988
H   3.339117810319  18.142259218835 -19.903636883255
H   3.607090585802  18.014249845668 -18.142740402755
H   5.333196053623  19.673140749180 -18.257881390675
H   5.098433477089  19.736101958980 -20.017087398369
H   6.120041498913  21.838993874352 -19.178682739739
H   4.803130031451  22.039949322640 -18.022805342064
H   4.486753582485  23.546267443899 -19.892862728785
H   3.168991294650  22.410015315898 -19.820143374754
H   5.564719838130  22.069695173580 -21.717375142238
H   4.104606335540  21.078671396327 -21.663772010710
H   5.052193894200  24.536129841686 -21.867994167925
H   3.758490156539  24.887612892349 -23.011845719799
H   6.208314997626  23.153506794548 -23.624405968625
H   5.971984850156  24.828092357486 -24.129730595070
H   3.944916918147  24.126905832271 -25.427147733166
H   4.178607431861  22.455960342728 -24.918943330113
H   6.365736546105  22.357381348347 -26.044983455310
H   5.098533545693  22.775889061058 -27.194292655347
H   4.845213411872  25.634032011162 -26.848270447452
H   5.297421128996  24.776302853683 -28.342735386660
H   7.009017960205  26.845094599119 -26.871665232206
H   6.030156508526  27.181779607786 -28.308469508500
H   7.378621488318  25.440935109870 -29.566100878087
H   8.403081458380  25.249087758827 -28.134557180585
H   8.033620290602  27.908291802572 -29.629550632008
H   9.366457126944  26.774929609110 -29.892624375378
H   8.728970187512  28.052706844190 -27.437800545279
