388
pair_id=pair_7281369a0f23aafabcfb start=2 nco_site=1 oh_site=2 attack_angle_deg=105.000000
C   0.284581330700 -2.856296821600 -1.075228802200
C   0.162525852300 -1.597457455400 -0.204947230400
C   0.845005092100 -1.904537770700  1.131145514700
C  -1.328669048700 -1.291252660800 -0.005722197300
C  -1.570475083400  0.087872243400  0.610820554000
C  -0.957110448900  1.181183157800 -0.269036073900
C   0.549683356000  0.994266183800 -0.497159448500
C   1.002261202900  1.956948628000 -1.604047402300
C   1.307902346100  1.391971275300  0.789954740500
N   2.703572888200  1.171113099200  0.732383851000
C   3.569168631800  0.422084370500  0.420855653800
O   4.549802891200 -0.154504117100  0.185714036600
C   0.831914196600 -0.441038993400 -0.968894226600
N  -2.963431143600  0.322177330700  0.785377568700
C  -4.013442667400  0.395831636900  0.235484889300
O  -5.116375984200  0.510373170000 -0.104212560000
H  -0.200973184600 -3.701335647600 -0.592771820900
H  -0.180392270100 -2.708228461400 -2.047427195000
H   1.331183276900 -3.106678504200 -1.231501354200
H   0.669336818000 -1.138529666000  1.878580217000
H   1.919144116400 -2.004976794700  0.992809095200
H   0.466878515000 -2.844074041600  1.529162011100
H  -1.834031280800 -1.321260360500 -0.974603031900
H  -1.780892848400 -2.056062502900  0.628522771700
H  -1.151102782700  0.129873374500  1.620567689400
H  -1.463600897200  1.156635133100 -1.237165534300
H  -1.148305840500  2.158375955300  0.179489575800
H   0.772454559600  2.985326617500 -1.333946347600
H   2.075584442100  1.874781849200 -1.759270064200
H   0.502011787900  1.732699420800 -2.543044673500
H   0.909588571900  0.871441133300  1.663883790100
H   1.176321145700  2.466024633200  0.954683369000
H   0.487257832900 -0.500634134700 -2.004285460000
H   1.911225245100 -0.607683746400 -0.987976068100
O  -1.044400107510 -10.796053866728  4.953938563603
C  -1.624792073298 -11.868297409432  5.655897260181
C  -0.816169518260 -13.162176083378  5.572240731120
C   0.500559305742 -13.152223079497  6.367069835411
C   1.692274373743 -12.521861741801  5.643703496025
O   1.662051603782 -11.101149398618  5.558633073248
C   2.065985462809 -10.458973643724  6.762144540335
C   1.748756006695 -8.971148629000  6.745179281036
C   2.433536748909 -8.254167795780  5.590000687655
C   2.145692381845 -6.761630971724  5.558709680931
O   2.744746694865 -6.111721762012  4.445358381388
C   4.162550666381 -5.980026453788  4.569662898037
C   4.907163641231 -6.419482581803  3.317374280118
C   6.418302211425 -6.247581541427  3.455123746591
C   7.169183046398 -6.382823282972  2.137831587183
O   7.180540728655 -7.703790995585  1.608595112421
C   7.920317123480 -7.752225407898  0.389383821849
C   8.034972382109 -9.147563844968 -0.209323615047
C   8.662739739029 -9.118186279505 -1.598316387969
C   8.627397650733 -10.465774359982 -2.301001591691
O   9.352669123426 -11.470647524008 -1.601261357986
C   9.645673750050 -12.594913731391 -2.425908491441
C   10.153981050761 -13.787228485634 -1.628077536191
C   9.073031123151 -14.386289035069 -0.735172418237
C   8.599141977236 -13.430515285521  0.346264386253
O   7.538560005575 -13.978406283613  1.120020088538
C   7.023046591323 -13.041239033598  2.058636503742
C   5.757640298129 -13.546166981091  2.732865040396
C   5.145383186644 -12.535999752336  3.697308355116
C   4.848875186208 -11.212902639476  3.006683753140
O   4.202557637743 -11.390926819245  1.756334873536
C   2.819887816655 -11.698071905778  1.852651165203
C   2.017711749277 -10.537076981047  2.420410648316
C   0.528562937296 -10.581860643422  2.107434138961
C  -0.107498873683 -9.241129166307  2.441692087803
O   0.610940428644 -8.188151116848  1.809489774053
C   0.152499320581 -6.891653873969  2.172631791188
C   0.996330385214 -5.805884311391  1.523385165794
C   0.544449341527 -4.389707611761  1.865136115056
C   0.773306781375 -4.023991797913  3.323008899025
O   0.486689782168 -2.652307032215  3.569029207990
C   0.670293854477 -2.283359120647  4.930603872697
C   0.681847360309 -0.771497615145  5.086978081110
C  -0.605056567271 -0.131317843716  4.587550082016
C  -0.466962992393  1.380529697000  4.488736335688
O   0.580085029076  1.722154282238  3.587815768630
C   0.975376942139  3.088260013276  3.644200096021
C   2.266212952569  3.291335680603  2.865596558352
C   3.350990508524  2.354112940020  3.381188110974
C   4.600922631387  2.328826847234  2.518017501759
O   5.514842842654  1.333801980231  2.958872748523
C   6.691675889423  1.250783964033  2.168955429578
C   6.427263911364  0.954872878900  0.693910113093
C   7.637526443425  0.370177727037 -0.028975120883
C   7.862376403903 -1.081053208972  0.365774587960
O   6.790088040742 -1.911778982589 -0.079334373203
C   6.572352933587 -3.049757167984  0.748995815984
C   5.440394897956 -2.837268753199  1.743011867805
C   4.108296307860 -2.526978831236  1.066596273065
C   3.756754912433 -3.532686981211 -0.022047514305
O   3.804128865285 -4.876496905296  0.449273482474
C   3.979450167845 -5.819958179298 -0.606362876845
C   4.065785896433 -7.250319763971 -0.092648922873
C   4.517509639819 -8.243179193683 -1.156124956793
C   4.549911369655 -9.679469511980 -0.641563664118
O   5.455941912387 -10.498060144955 -1.377044565911
C   5.196217696560 -11.886451851964 -1.214749893239
C   4.171213190104 -12.372327034847 -2.223483315804
C   4.638195115463 -12.056492329308 -3.636152229597
C   3.649777461489 -12.461272579655 -4.715540575930
O   4.127841743307 -12.125095624099 -6.014583146248
C   3.320456399701 -12.636284470471 -7.064920092920
C   3.306203536146 -14.158645661768 -7.116015220841
C   4.718157854782 -14.728169742811 -7.042102093387
C   4.752422190109 -16.233403118679 -6.820510473673
O   6.061954198815 -16.787162521365 -6.822053103209
C   6.925323979314 -16.189797445530 -5.862236070939
C   8.246284790965 -16.929802759554 -5.725378903096
C   9.234530653167 -16.228169804522 -4.796373615097
C   9.606570219472 -14.838037541692 -5.296246438515
O   8.512025383072 -13.930943006354 -5.209269837272
C   8.719319317275 -12.742655462074 -5.966969831412
C   7.546148819396 -11.782240014925 -5.852331420777
C   7.757683507505 -10.489990853602 -6.630154060680
C   6.586298233996 -9.529147738967 -6.501275504969
O   6.809885169714 -8.296966966154 -7.186107548797
C   5.626408016058 -7.514420439936 -7.261448098989
C   5.855656174950 -6.088708112717 -7.745467956533
C   6.510261071099 -6.011899201574 -9.119953286398
C   7.998758954754 -6.310083587210 -9.062575938328
O   8.709916993770 -5.331004718626 -8.307354239046
C   10.078014297772 -5.680256264797 -8.082138581780
C   10.336482408943 -6.120824854325 -6.646505452614
C   9.353161816593 -7.186331860177 -6.198350560420
C   9.589028311670 -7.670136861787 -4.775825045249
O   9.763847801834 -6.628372805010 -3.829884520313
C   8.646183527203 -5.755013786659 -3.706398320690
C   8.914483962968 -4.682546200254 -2.659628993526
C   7.860165605898 -3.580239644235 -2.614812599365
C   7.795794686286 -2.752227425446 -3.894592373453
O   7.105570551928 -1.517239453849 -3.748284347189
C   5.828046680098 -1.666747141771 -3.145042241180
C   4.950488757667 -0.432350695302 -3.293530893001
C   3.640889617843 -0.557281718678 -2.517787295881
C   2.730410977311 -1.651767737177 -3.056691885372
O   1.649095086217 -1.945713643330 -2.179272777404
C   0.671411460715 -2.780615016635 -2.798489702663
C  -0.104551396382 -3.609697271712 -1.788747860862
C  -1.249697698136 -4.393214520371 -2.416170316240
C  -1.899967754053 -5.329374068243 -1.410723156612
O  -0.982351543936 -6.273919900922 -0.878073241059
C  -0.744739358345 -7.373234124955 -1.752442027414
C   0.338848892885 -8.298362293521 -1.220649016331
C   0.518134349676 -9.573195912836 -2.036051845045
C   1.062396253531 -9.290124340973 -3.427001191203
O   2.287109327590 -8.571425685632 -3.369429753033
C   2.974396637072 -8.530130513372 -4.610103403038
C   2.227465356417 -7.762175358650 -5.687779422809
C   1.856975168680 -6.346887644676 -5.254937995588
C   3.057568215726 -5.486902746917 -4.868179199948
O   2.751319853814 -4.097041055042 -4.881107771374
C   2.888801533671 -3.522004688927 -6.177957417310
C   4.305554165748 -3.034209741055 -6.443554466997
C   4.546240942377 -2.608492111880 -7.886199924850
C   5.943518787571 -2.032999006627 -8.048230874752
O   6.099015614733 -0.883269991983 -7.222790813609
C   7.452630951361 -0.577805244321 -6.912689918054
C   7.521735629555  0.600243759299 -5.954475927484
C   6.883183917635  1.843726321438 -6.556162249323
C   6.576220819207  2.901398482403 -5.506821231810
O   5.549742874735  2.465561006414 -4.624025556648
C   5.175047702315  3.451557018700 -3.667626496337
C   6.100104916183  3.484487070718 -2.461531657528
C   5.674713985892  4.484978373871 -1.389859555947
C   4.255013617836  4.261406405776 -0.877516100919
O   4.019664447458  2.943934857229 -0.431977062891
H  -0.075101442282 -10.808070985759  5.139991233177
H  -2.632279748889 -12.001760440749  5.241349039582
H  -1.760529310684 -11.563347325688  6.701261229329
H  -1.445713758464 -13.990547688004  5.925493914001
H  -0.606856190958 -13.387984803737  4.520962917933
H   0.340610084223 -12.655302258827  7.328958126042
H   0.765040450415 -14.187287594149  6.625643566601
H   1.745013419368 -12.902239759497  4.618122931947
H   2.640375903508 -12.797796940744  6.120908521513
H   1.576644438430 -10.953866741233  7.607734629205
H   3.143689531569 -10.621780548876  6.874235401950
H   2.039485250145 -8.506075549205  7.695206122835
H   0.664295776717 -8.832884360111  6.666605291453
H   2.114923503156 -8.692105486092  4.639621658337
H   3.513342991856 -8.431038993042  5.634252418582
H   1.066769554245 -6.582776444168  5.496396191882
H   2.487097553672 -6.267297760791  6.474902210645
H   4.368487433252 -4.926221825371  4.790920323070
H   4.512453915356 -6.545660834204  5.439783050214
H   4.535009441929 -5.837918330365  2.467137051563
H   4.661291998836 -7.461340680234  3.083702447747
H   6.810549767172 -6.975809224090  4.173921230495
H   6.624520314895 -5.263474866477  3.895220884372
H   8.213771184533 -6.069726340973  2.255278555784
H   6.722965603849 -5.730105378295  1.381041794392
H   8.917924489898 -7.338662499851  0.575020198506
H   7.428608292888 -7.076068270936 -0.319023500217
H   7.041698984988 -9.600663552862 -0.262850268344
H   8.608839967060 -9.801105916555  0.456913280887
H   9.700158493296 -8.772406567211 -1.525230562101
H   8.144856023175 -8.368294449582 -2.207725806214
H   9.045585176680 -10.389952338046 -3.311478471159
H   7.594884951999 -10.817201654249 -2.403316587242
H   10.384757314711 -12.268317329544 -3.166933117369
H   8.734722720211 -12.865645785557 -2.972038986795
H   10.548726078576 -14.554783216492 -2.306106008112
H   11.001760079150 -13.466478204710 -1.012537159347
H   9.426081312972 -15.310744139649 -0.262123748556
H   8.212373528338 -14.684147392955 -1.345088364494
H   9.419120798395 -13.167537070195  1.023595184239
H   8.242215591108 -12.496920298555 -0.101526102336
H   6.822847052925 -12.108400599719  1.520439212608
H   7.804275572093 -12.828194978627  2.796507019662
H   5.971412305022 -14.494187294602  3.240881950680
H   5.029720011156 -13.792405562959  1.951332552847
H   4.222153460328 -12.944973302744  4.123767859179
H   5.816212323924 -12.373702352692  4.550095981806
H   4.255418515125 -10.541382629535  3.635952679030
H   5.779480063833 -10.673716108672  2.793347363115
H   2.688666933921 -12.615113710954  2.435685010684
H   2.482656829772 -11.928911218730  0.835841569816
H   2.165340390128 -10.471273719456  3.502201226935
H   2.430088858161 -9.605184640577  2.014521127319
H   0.388922197167 -10.790591199204  1.040762606314
H   0.039600591760 -11.404033275349  2.643519929447
H  -0.083801505121 -9.059975823136  3.521534679548
H  -1.155129056125 -9.191944907160  2.123285020151
H   0.185066720466 -6.812831639095  3.263650588231
H  -0.895871852458 -6.804243597852  1.866235055826
H   2.042301906237 -5.940551009137  1.821311902383
H   0.979564285490 -5.958368876060  0.438279413659
H  -0.515315990895 -4.261562421058  1.618351330133
H   1.074978588960 -3.660135585211  1.242339786106
H   0.149402657426 -4.630139509728  3.987993545149
H   1.817617951843 -4.204919432915  3.602190209646
H   1.608534145318 -2.725981565008  5.285965280701
H  -0.143836625664 -2.731896381162  5.510344474523
H   0.872310457695 -0.482109902202  6.127729219677
H   1.518974968986 -0.366803082918  4.506363179164
H  -1.448502437646 -0.414513089569  5.228832043671
H  -0.832954627332 -0.532981732649  3.593101830176
H  -1.388554778359  1.855131169934  4.132706541319
H  -0.233272707379  1.806975080695  5.470162848145
H   1.117811259384  3.360377099112  4.695640229192
H   0.155379350663  3.700274270925  3.251456773028
H   2.602212593072  4.334254630314  2.910974106802
H   2.082601409239  3.078589525888  1.805892013177
H   3.617380142787  2.606808319985  4.413559530115
H   2.946780101179  1.336407371057  3.433684100011
H   5.107972770238  3.299681210870  2.520834594687
H   4.329341993158  2.103713636853  1.482599053583
H   7.296982616383  0.458123166191  2.620450185872
H   7.261319593315  2.178406995339  2.295293694094
H   5.595931884415  0.246265761719  0.617529745434
H   6.082364570711  1.868570804429  0.197304595686
H   7.491130509837  0.412776756417 -1.115229264589
H   8.526295553460  0.977095522590  0.182135500405
H   8.789605628564 -1.478236681531 -0.063727197678
H   7.951566151890 -1.176275971100  1.452510505470
H   7.513270600902 -3.311559126492  1.247910119014
H   6.341967451609 -3.886887148385  0.082022604020
H   5.327890860529 -3.731160285126  2.366271808080
H   5.707990439130 -2.027245434662  2.432419279680
H   4.136055274916 -1.517441028867  0.641730658585
H   3.307582285228 -2.508827727098  1.816451346307
H   2.756080128107 -3.354533680073 -0.433017653388
H   4.454314772835 -3.440288244203 -0.861086490519
H   4.898273063328 -5.558471254791 -1.142522960916
H   3.151235907463 -5.704488869292 -1.314370528497
H   4.771230906745 -7.285198008636  0.743568733307
H   3.103317591228 -7.555877085259  0.331537290150
H   5.516559652596 -7.969721307060 -1.513078303630
H   3.873667291491 -8.177975446340 -2.038586417827
H   3.550415891636 -10.125954768311 -0.667732694176
H   4.875848717367 -9.708333636413  0.404903199945
H   6.148254989007 -12.409616114213 -1.357703831227
H   4.888653926820 -12.070649414216 -0.179186147046
H   3.206511033072 -11.886886238855 -2.040630194266
H   3.991486433831 -13.448611258030 -2.111782651312
H   4.850140772950 -10.984516563958 -3.719993635475
H   5.596421357218 -12.553451395743 -3.823068465521
H   3.469368869057 -13.538906589872 -4.665008785594
H   2.683049678806 -11.969301466031 -4.569199464238
H   3.737635685419 -12.229363096432 -7.993185598576
H   2.312735924883 -12.217303046071 -6.961774727432
H   2.799168831939 -14.514546648548 -8.021511999444
H   2.711168710571 -14.554354415260 -6.285366075484
H   5.276978609597 -14.474311067425 -7.949840111941
H   5.252297965027 -14.227651148839 -6.227845142136
H   4.273967914072 -16.501708933994 -5.871999530215
H   4.190571737700 -16.748469829453 -7.607518361177
H   6.404306414598 -16.141302577613 -4.899650118453
H   7.111468437397 -15.160578232346 -6.183688037742
H   8.690329815525 -17.038580100236 -6.721456272101
H   8.048881465703 -17.953215338112 -5.384145212114
H   10.137930194594 -16.840098008216 -4.675336455691
H   8.796018037232 -16.138005067676 -3.796334033552
H   9.932823276024 -14.888127223811 -6.340848619578
H   10.436591619058 -14.409795666042 -4.722908658145
H   9.643308607783 -12.269786386072 -5.616993054241
H   8.880264517483 -13.026663870131 -7.012710263321
H   7.372072723447 -11.552842167676 -4.796292055134
H   6.630643445932 -12.278166014587 -6.192637522301
H   8.673676247220 -10.001824774038 -6.283039173512
H   7.932652129539 -10.709589376704 -7.689360695182
H   5.673180366631 -9.986690654807 -6.899268072839
H   6.392277562518 -9.297292322476 -5.447919317839
H   5.172418987386 -7.513391958163 -6.264888451404
H   4.935522487192 -8.038146779815 -7.931692903496
H   6.484665594603 -5.554372027327 -7.024786691040
H   4.894623993080 -5.559397256599 -7.759486446117
H   6.378413108155 -5.008986417794 -9.544977187919
H   6.003319258543 -6.699619011616 -9.807884914016
H   8.168455454951 -7.291227126375 -8.608674381964
H   8.438870289502 -6.336156461558 -10.066475195877
H   10.684644919369 -4.804997759972 -8.344375074055
H   10.356020300091 -6.471924497154 -8.787314972931
H   11.364613059403 -6.485331153959 -6.531231782571
H   10.259242495609 -5.255450453644 -5.978935788148
H   8.335089413335 -6.792643453847 -6.289309763646
H   9.393246761704 -8.031482524756 -6.895106844578
H   8.768373586238 -8.308701616136 -4.431550448715
H   10.501077692098 -8.276275677772 -4.727001397850
H   8.455169291361 -5.297586045015 -4.681147654932
H   7.758896494924 -6.344848537260 -3.452291079553
H   9.895858195369 -4.238975759564 -2.863270803637
H   9.017183988114 -5.161615634626 -1.678258060359
H   6.877997524873 -4.016556023418 -2.401502988700
H   8.067436085496 -2.902563627924 -1.779080976052
H   7.321465770415 -3.310137782798 -4.709705032420
H   8.806383349718 -2.501727922630 -4.236304019672
H   5.347290868090 -2.547796207361 -3.581785530209
H   5.992107131299 -1.879765850530 -2.083689621150
H   4.747651728639 -0.247358948033 -4.354132250809
H   5.516510818164  0.442150349542 -2.954053417885
H   3.859900223671 -0.767172788662 -1.466012914347
H   3.094335550883  0.393335407085 -2.513472052331
H   2.322065001504 -1.368659384426 -4.033295558720
H   3.279319515448 -2.588276188611 -3.200349494162
H   0.000550843953 -2.131489057319 -3.372146164135
H   1.174569421194 -3.436240310314 -3.518474607820
H  -0.484869872577 -2.954914754304 -0.996634067603
H   0.581355484770 -4.300478354385 -1.286312460632
H  -0.873262789285 -4.966015491989 -3.270239478181
H  -1.990273977102 -3.700364551574 -2.834736712385
H  -2.749411931581 -5.872280601422 -1.841495230899
H  -2.290691886392 -4.758762627008 -0.560479312560
H  -1.688760233814 -7.916703694843 -1.869145226323
H  -0.472844471590 -6.986144745579 -2.738338449527
H   0.101740241067 -8.541419967593 -0.179688996993
H   1.286961111036 -7.751809241356 -1.184804508873
H   1.211683125767 -10.246836222885 -1.518361517959
H  -0.433875700169 -10.114428818346 -2.098358380396
H   0.348951758363 -8.695435949342 -4.005899659639
H   1.230078580707 -10.219682114255 -3.982362141095
H   3.187432474749 -9.560012142886 -4.918920539876
H   3.944952832654 -8.063922657519 -4.409139362560
H   2.830437755391 -7.719600170737 -6.602805078889
H   1.323225094069 -8.314944471654 -5.969463245353
H   1.302582318808 -5.846123514452 -6.057484166756
H   1.160934913837 -6.382257740270 -4.409757485929
H   3.899497740623 -5.659925637935 -5.545061978867
H   3.414641335719 -5.739478400023 -3.863197709109
H   2.173870547136 -2.694812967218 -6.252931242366
H   2.583874171390 -4.260009695499 -6.927545536265
H   4.532631830022 -2.195269010528 -5.776975834337
H   5.023130964955 -3.810990552265 -6.160724327104
H   3.809706884914 -1.847831239311 -8.168568699885
H   4.383901955928 -3.450688492119 -8.569010239244
H   6.697240440196 -2.774952242053 -7.761277305265
H   6.151707688061 -1.737002179876 -9.082918641945
H   7.915506458093 -1.471458898505 -6.479019599781
H   7.973101918084 -0.355112438869 -7.850350828913
H   8.554214824915  0.806131066099 -5.646646912839
H   6.985600008685  0.333775504939 -5.036871999414
H   5.943556491412  1.555217387670 -7.042285409125
H   7.520871153742  2.246626055298 -7.352800698192
H   6.242325285438  3.834918335002 -5.974778690812
H   7.469545945580  3.130819634307 -4.917290638873
H   4.150735309713  3.210715819810 -3.363633419864
H   5.126500501616  4.428729691088 -4.160286666314
H   6.150019793394  2.478659666958 -2.032723719382
H   7.123053690509  3.698067968004 -2.792772896554
H   5.769690444365  5.505488248324 -1.781318881337
H   6.369948173288  4.429047739598 -0.543031485272
H   4.037910371422  4.926357918724 -0.031903374478
H   3.511677147488  4.507151730282 -1.646558647624
H   4.067051836305  2.316759175600 -1.189032896140
