45
pair_id=pair_fd001194f5aff44100ff start=1 nco_site=1 oh_site=1 attack_angle_deg=105.000000
O   6.071138798300  2.480874245000 -0.539966886600
C   5.281563264000  1.703290642200 -0.203729312400
N   4.583194840700  0.895553337000  0.323028101100
C   3.469566272400  0.097992287700  0.217823463600
C   3.141003666300 -0.720825069600  1.291776942100
C   2.027239290200 -1.535897111400  1.217504870200
C   1.230376574900 -1.552900220000  0.080976745700
C   0.000129982500 -2.417918638600 -0.002577497200
C  -1.230253681400 -1.553071685200 -0.084299228600
C  -2.021435998300 -1.526209840700 -1.224619472200
C  -3.134787785500 -0.710465627800 -1.297435226200
C  -3.468763238200  0.098981255200 -0.218056518800
N  -4.581846364100  0.897438299100 -0.321975352000
C  -5.282652338400  1.701065266500  0.207899688400
O  -6.073694902800  2.476057311700  0.546553031600
C  -2.680498724400  0.084975519400  0.931153113200
C  -1.572915706700 -0.735626567500  0.987803746500
C   1.567638803400 -0.726117648500 -0.985674162700
C   2.675451036000  0.094047662700 -0.927432521900
H   3.761402694000 -0.710428411900  2.174324307200
H   1.779230559000 -2.170944736200  2.055913696000
H   0.058433977900 -3.056457871800 -0.886664495400
H  -0.057740878700 -3.058561817600  0.879976911700
H  -1.769229849800 -2.154027086400 -2.067217719300
H  -3.750781892300 -0.692421148900 -2.182945547900
H  -2.943609239700  0.716629811900  1.766859046600
H  -0.960209384700 -0.742612630800  1.877475508100
H   0.950329509800 -0.725172817000 -1.872181069100
H   2.934211927200  0.733133578500 -1.758835180200
O   3.584262697644  1.483041604723 -2.291948924639
C   2.695924975905  1.367767072890 -3.384886904864
C   1.669892783934  2.500225387998 -3.471332158435
C   0.565776897253  2.452257868669 -2.410826626694
C   1.026727363940  2.774945364032 -0.982083213413
O   1.626514080854  1.697540830060 -0.318286342198
H   4.053218427099  2.322957148277 -2.357855722508
H   3.269945490501  1.328031292924 -4.321152232568
H   2.192201035404  0.408146577693 -3.248860692968
H   1.202630576472  2.442909105106 -4.456587475368
H   2.191724753253  3.460667823834 -3.409063658808
H  -0.200059473643  3.179218737428 -2.688587255136
H   0.105130978792  1.462618206499 -2.406689250266
H   0.154212330130  3.038471286474 -0.377554243557
H   1.700412002416  3.647405415618 -1.002217576062
H   2.400556866320  1.418215721881 -0.836789820018
