47
pair_id=pair_90a17c3807fb14954fff start=3 nco_site=2 oh_site=1 attack_angle_deg=105.000000
C  -0.000459126700  0.000735647000  0.522920831700
C  -0.992010663100  0.785756250600  1.378015788600
C  -2.016019424300  1.545821546900  0.531210324300
N  -2.900118248500  0.690267334900 -0.172920072400
C  -3.027304416400 -0.361792352400 -0.706570253900
O  -3.350981806000 -1.330304924500 -1.258230835400
C   0.991685933700 -0.781037848400  1.380304733300
C   2.015050216700 -1.544161560500  0.535524113100
N   2.899661976200 -0.691079752300 -0.170947158200
C   3.028001394800  0.359617411700 -0.706957544600
O   3.352420678500  1.326287571100 -1.261459476700
H   0.543752107700  0.694726014500 -0.123116924700
H  -0.545127995300 -0.695790143500 -0.120004612200
H  -1.519839110600  0.103171708700  2.047840451100
H  -0.453194586000  1.512088430100  1.989342102200
H  -2.639266568200  2.176501823800  1.171880418400
H  -1.502500947100  2.189849824200 -0.192137373200
H   1.520081193200 -0.095964201300  2.047135765000
H   0.453279376600 -1.505025608900  1.994762298100
H   2.637854627800 -2.173717065300  1.177729304000
H   1.501047115700 -2.189637061700 -0.186196264700
C   7.883055203060 -0.256496230340 -1.587868925170
C   9.177958543273  0.500438119949 -1.309530235741
C   10.362824991897 -0.463951909817 -1.270575405950
C   10.120126807034 -1.539653668750 -0.211487617924
C   8.825228109410 -2.296565729191 -0.489878371051
C   7.640392273850 -1.332144286137 -0.528722891392
C   6.330699901943 -2.080322734339 -0.803056380686
O   5.199054841230 -1.244295404345 -0.770128829788
C   11.672388387638  0.284365826394 -0.996018406335
O   12.804073578840 -0.551621167749 -1.028344687418
H   7.038741332969  0.434828979796 -1.607703325125
H   7.943353540180 -0.732880360499 -2.569086588615
H   9.104086805491  1.016902017829 -0.349636553095
H   9.337633736819  1.255687905410 -2.082220236045
H   10.447004502200 -0.951837228455 -2.250869477024
H   10.059816651102 -1.063332122069  0.769760081162
H   10.964442055751 -2.230980717153 -0.191691623531
H   8.899075039756 -2.812927301433 -1.449829436292
H   8.665558740747 -3.051893080782  0.282732635774
H   7.556418675043 -0.844207696474  0.451563417712
H   6.219621636845 -2.903099916833 -0.080183478854
H   6.345189364386 -2.508037994543 -1.808354535001
H   5.159462717044 -0.815358972557  0.092107942326
H   11.657544763264  0.712296361593  0.009182826945
H   11.783675531684  1.106992145311 -1.719031412918
H   12.843991800547 -0.980764450569 -1.890470830275
