35
pair_id=pair_853f476a9d9d031b71ca start=1 nco_site=1 oh_site=1 attack_angle_deg=105.000000
C  -2.446703299700 -1.853063307200  0.000123365600
C  -1.098027931500 -1.205932880900 -0.000066001300
C  -0.977301580500  0.191279927900 -0.000010540500
C   0.267967642200  0.804165982100 -0.000123504100
C   1.417991736400  0.026293504500 -0.000147019000
C   1.317979512900 -1.362983689200 -0.000021543200
C   0.069352399300 -1.955586166900 -0.000065144800
N   2.632038095300  0.666782419400 -0.000316067500
C   3.817430935400  0.550232190400  0.000086689700
O   4.971044958500  0.643019233500  0.000273142600
N  -2.082630512100  1.005769681200  0.000064390200
C  -3.274049916600  1.044002541200  0.000022428200
O  -4.404742005300  1.293651270200  0.000058905200
H  -3.016326284800 -1.552982801300  0.880538512500
H  -2.353428997400 -2.935486979200 -0.000257502200
H  -3.016936278500 -1.552395575500 -0.879688210700
H   0.338560408400  1.879666146500 -0.000123025800
H   2.213426184600 -1.965662440300  0.000120232800
H  -0.000809997700 -3.033428387600  0.000035023700
O   3.329959069190 -2.105397367980  0.001768448312
C   3.074824736695 -3.495307887329  0.002648651644
C   2.825641671136 -4.080272968166 -1.389615809701
C   1.476812916910 -3.708815037214 -2.013093759827
C   1.344407146086 -2.239936140125 -2.440614275047
O   1.031282367244 -1.365839342576 -1.392244787111
H   4.099747291513 -1.929491496317 -0.551589048777
H   3.918032716056 -4.022432434698  0.470421312613
H   2.193219498989 -3.627651119018  0.633814166571
H   2.875218606217 -5.167456007012 -1.300608316168
H   3.633575835567 -3.766862487791 -2.058683743127
H   1.332458344592 -4.330471153560 -2.899002247689
H   0.673730655631 -3.934192009585 -1.308918680062
H   0.517483872485 -2.149028098271 -3.150626457281
H   2.267230166069 -1.922555304303 -2.953556771955
H   1.736540311649 -1.431043951583 -0.725633808262
