46
pair_id=pair_597bf6d46537121911f9 start=3 nco_site=2 oh_site=1 attack_angle_deg=105.000000
O   6.071138798300  2.480874245000 -0.539966886600
C   5.281563264000  1.703290642200 -0.203729312400
N   4.583194840700  0.895553337000  0.323028101100
C   3.469566272400  0.097992287700  0.217823463600
C   3.141003666300 -0.720825069600  1.291776942100
C   2.027239290200 -1.535897111400  1.217504870200
C   1.230376574900 -1.552900220000  0.080976745700
C   0.000129982500 -2.417918638600 -0.002577497200
C  -1.230253681400 -1.553071685200 -0.084299228600
C  -2.021435998300 -1.526209840700 -1.224619472200
C  -3.134787785500 -0.710465627800 -1.297435226200
C  -3.468763238200  0.098981255200 -0.218056518800
N  -4.581846364100  0.897438299100 -0.321975352000
C  -5.282652338400  1.701065266500  0.207899688400
O  -6.073694902800  2.476057311700  0.546553031600
C  -2.680498724400  0.084975519400  0.931153113200
C  -1.572915706700 -0.735626567500  0.987803746500
C   1.567638803400 -0.726117648500 -0.985674162700
C   2.675451036000  0.094047662700 -0.927432521900
H   3.761402694000 -0.710428411900  2.174324307200
H   1.779230559000 -2.170944736200  2.055913696000
H   0.058433977900 -3.056457871800 -0.886664495400
H  -0.057740878700 -3.058561817600  0.879976911700
H  -1.769229849800 -2.154027086400 -2.067217719300
H  -3.750781892300 -0.692421148900 -2.182945547900
H  -2.943609239700  0.716629811900  1.766859046600
H  -0.960209384700 -0.742612630800  1.877475508100
H   0.950329509800 -0.725172817000 -1.872181069100
H   2.934211927200  0.733133578500 -1.758835180200
C  -1.902437987509  0.497492125039 -5.058011787957
C  -3.218698779773  1.218777280985 -5.345480898676
O  -4.188696611737  0.701867237674 -4.459680532362
C  -5.474409610877  1.253818304401 -4.646800120973
C  -6.396481925690  0.639313607712 -3.594375331403
O  -6.015817857567  1.002179444985 -2.294904125324
O  -1.986516161150 -0.871607849456 -5.347338367448
H  -1.635798623316  0.654914609622 -4.003108705836
H  -1.110826846050  0.902892420228 -5.690923914068
H  -3.525924696529  1.038003626802 -6.385895053750
H  -3.100073852950  2.301883229763 -5.196524486131
H  -5.436402495100  2.345671962496 -4.520506749063
H  -5.846212795105  1.028882268781 -5.657021550873
H  -6.386265689864 -0.453946350909 -3.710061183004
H  -7.415739923649  1.003909309078 -3.735026786806
H  -5.075024027916  0.806002713713 -2.205691329808
H  -2.768440423697 -1.213138788772 -4.896238146614
