67
pair_id=pair_3ea150d80d5c55174de7 start=2 nco_site=1 oh_site=2 attack_angle_deg=105.000000
O   6.618264355100  0.143538449800 -1.688772552200
C   5.816657291800  0.056693374400 -0.854090093000
N   5.168305460200 -0.077203069200  0.131054582300
C   3.854011754200 -0.052937900900  0.673130753600
C   3.208913872000  1.324955326500  0.505592565300
C   1.816479531100  1.330099716500  1.127972203900
C   0.915975883400  0.265277561500  0.494741769900
C   1.575300343600 -1.106616265900  0.646848687500
C   2.969563288100 -1.121854323200  0.026592232800
C  -0.471566668400  0.318794788400  1.144508880200
C  -1.531720426600 -0.614503699000  0.548593741600
C  -2.815889084600 -0.520079738200  1.377955627300
C  -3.901240110600 -1.443307734100  0.834788234600
C  -4.215431931400 -1.131031945700 -0.633160601400
C  -2.931460693800 -1.192021334500 -1.468816570500
C  -1.850234206100 -0.273002050300 -0.907919417400
N  -4.855865099800  0.132195613900 -0.765308668800
C  -4.715970678600  1.296887398100 -0.579600605500
O  -4.781695726700  2.452432031500 -0.482541701300
H   3.969545924300 -0.273189232200  1.741047915900
H   3.836149805100  2.083749329600  0.977052012800
H   3.142337409400  1.557949739500 -0.559917029900
H   1.898918572600  1.140301456600  2.200766512800
H   1.366995500400  2.316357678000  0.998420659100
H   0.822792117200  0.492510003800 -0.571700099600
H   1.645879490100 -1.356204628000  1.708123695400
H   0.969045823200 -1.872128855900  0.161264418100
H   2.901208685400 -0.921631752800 -1.045633449400
H   3.428518868200 -2.103936366600  0.155965136700
H  -0.843348377200  1.344547930400  1.077407088700
H  -0.362537387200  0.081373795700  2.206152281500
H  -1.171999744600 -1.647583393000  0.596726238500
H  -2.605958818300 -0.783409642800  2.416616017800
H  -3.176915567100  0.511493151300  1.366280192100
H  -4.810035213800 -1.341777785600  1.430961935200
H  -3.567918939900 -2.481073930500  0.896756635300
H  -4.936516961100 -1.862698729600 -1.016941204600
H  -2.574708747800 -2.223980911300 -1.464940239600
H  -3.156569269900 -0.914536712900 -2.500403691300
H  -0.955847295700 -0.371101252100 -1.524329068000
H  -2.184966647800  0.765627050600 -0.969067221100
C   11.464097640062 -2.247869813647  3.262667286729
C   10.054240298434 -1.747656726918  3.561474651593
C   9.344807705906 -1.345527668841  2.269007349624
C   10.161081192311 -0.276915203932  1.541361404753
C   11.570916478970 -0.777179685083  1.242564100271
C   12.280329598301 -1.179197732905  2.535068680208
C   13.701088476404 -1.679777663227  2.250133764160
O   14.423262955994 -1.988070228802  3.418066201667
C   7.924154745319 -0.844774167303  2.554153564931
O   7.202038328660 -0.535893836339  1.386347315270
H   11.969530132831 -2.527128123393  4.188811256373
H   11.408578671837 -3.139850671702  2.634452653808
H   10.103216947945 -0.883183288619  4.227713974748
H   9.485577773587 -2.528600249527  4.071080763970
H   9.272045951773 -2.230003746939  1.622089631294
H   10.216639799353  0.615097781199  2.169527507981
H   9.655641130397  0.002306410061  0.615208694583
H   11.521913637476 -1.641723912422  0.576417952216
H   12.139588323682  0.003695881591  0.732870892919
H   12.352883526102 -0.294686090544  3.181961260729
H   14.241744216188 -0.929535066884  1.652912429238
H   13.664621551988 -2.610216313209  1.678531848973
H   14.456010220505 -1.202093243492  3.974998913246
H   7.960845478896  0.085468467681  3.126059873390
H   7.383339975445 -1.595089949280  3.151139585449
H   7.169092120935 -1.321668831106  0.829130021203
