50
pair_id=pair_3f18c776b3702a389f8b start=1 nco_site=1 oh_site=1 attack_angle_deg=105.000000
C   0.159883306100  2.323753869400 -0.000995589400
C  -0.915882950700  1.477548341000 -0.000889906500
C  -0.733639648400  0.081070027900 -0.000518832500
C   0.583222895200 -0.449703940800 -0.000364756500
C   0.783355439400 -1.844419106000 -0.000205264700
C  -0.284573324100 -2.698870241200 -0.000232302300
C  -1.590540479800 -2.199499701100 -0.000313781500
C  -1.818214859700 -0.843116478200 -0.000342842400
N  -3.121474537100 -0.417891108100 -0.000126661600
C  -3.872846675800  0.506806114300  0.000830545000
O  -4.755064004400  1.257563566600  0.001595702000
C   1.674770097700  0.460296976500 -0.000398062000
C   1.463863819100  1.820274224000 -0.000699877800
N   2.939587000300 -0.071992494900 -0.000175286400
C   4.110474945300  0.148126150600  0.000736432600
O   5.267788579400  0.154240520700  0.001452554500
H   0.010107250600  3.392630684300 -0.001358245900
H  -1.917456576800  1.881777715100 -0.001153599100
H   1.795046022600 -2.219835175600 -0.000080892500
H  -0.129086437300 -3.766877366400 -0.000148362900
H  -2.432680020500 -2.873840173600 -0.000261212800
H   2.307590927200  2.494321811000 -0.000741655800
C  -4.614337216549  2.151673885351 -6.052231200908
C  -5.434364327852  2.728968362427 -6.992234656461
C  -5.328318006419  4.089807698030 -7.286780596133
C  -4.382669233860  4.850098461997 -6.617240099071
C  -3.554031936058  4.266911185195 -5.668061145337
C  -3.660887194057  2.916205196255 -5.376715632262
O  -2.897576629742  2.245496453035 -4.463110868322
C  -1.917491021099  2.960871242796 -3.737758848483
C  -1.248153215588  1.955993009492 -2.797864479673
O  -2.144999027948  1.460812441558 -1.841563124486
O  -6.190491267416  4.563207962696 -8.235275560729
C  -6.132882126923  5.931523671722 -8.585780570004
C  -7.196287652367  6.151634423772 -9.663731723516
O  -6.902106106557  5.444975954267 -10.837744117396
H  -4.691789003776  1.101069280004 -5.822088783384
H  -6.172612045721  2.142924580399 -7.515851006235
H  -4.270897285279  5.903901426476 -6.817276753473
H  -2.829634065375  4.889869619125 -5.167725160034
H  -2.385557977208  3.761023253110 -3.149243669299
H  -1.169845251976  3.394646878533 -4.414218812537
H  -0.829002486015  1.136621472798 -3.398748804866
H  -0.442257892117  2.444125735255 -2.246294933394
H  -2.915258957231  1.122959218720 -2.315241563688
H  -6.345069954725  6.567004492639 -7.716288759080
H  -5.142360397838  6.181815345391 -8.988284601250
H  -7.233342547659  7.208029471116 -9.936712076474
H  -8.173592672095  5.848721367673 -9.262078741979
H  -6.759231787886  4.522402023996 -10.591801336733
