214
pair_id=pair_5122a20522ecb6d42280 start=2 nco_site=1 oh_site=2 attack_angle_deg=105.000000
O   6.071138798300  2.480874245000 -0.539966886600
C   5.281563264000  1.703290642200 -0.203729312400
N   4.583194840700  0.895553337000  0.323028101100
C   3.469566272400  0.097992287700  0.217823463600
C   3.141003666300 -0.720825069600  1.291776942100
C   2.027239290200 -1.535897111400  1.217504870200
C   1.230376574900 -1.552900220000  0.080976745700
C   0.000129982500 -2.417918638600 -0.002577497200
C  -1.230253681400 -1.553071685200 -0.084299228600
C  -2.021435998300 -1.526209840700 -1.224619472200
C  -3.134787785500 -0.710465627800 -1.297435226200
C  -3.468763238200  0.098981255200 -0.218056518800
N  -4.581846364100  0.897438299100 -0.321975352000
C  -5.282652338400  1.701065266500  0.207899688400
O  -6.073694902800  2.476057311700  0.546553031600
C  -2.680498724400  0.084975519400  0.931153113200
C  -1.572915706700 -0.735626567500  0.987803746500
C   1.567638803400 -0.726117648500 -0.985674162700
C   2.675451036000  0.094047662700 -0.927432521900
H   3.761402694000 -0.710428411900  2.174324307200
H   1.779230559000 -2.170944736200  2.055913696000
H   0.058433977900 -3.056457871800 -0.886664495400
H  -0.057740878700 -3.058561817600  0.879976911700
H  -1.769229849800 -2.154027086400 -2.067217719300
H  -3.750781892300 -0.692421148900 -2.182945547900
H  -2.943609239700  0.716629811900  1.766859046600
H  -0.960209384700 -0.742612630800  1.877475508100
H   0.950329509800 -0.725172817000 -1.872181069100
H   2.934211927200  0.733133578500 -1.758835180200
O   7.637845646027  0.141577324254  0.006970155371
C   7.260903819913 -1.169939277759 -0.359868508949
C   7.026695709796 -2.079845682527  0.839539174849
C   6.729971049216 -3.526441205561  0.460197816675
C   7.938610654819 -4.211917157095 -0.160526662554
O   9.081444775983 -4.112331915130  0.679898927266
C   10.208053621314 -4.812132632753  0.159918758293
C   11.398769397466 -4.737189438232  1.101738190324
C   12.615202937161 -5.511232931131  0.611734257000
C   13.717562951478 -5.503962556226  1.658086724271
O   13.268721405200 -6.080288140407  2.881166371995
C   14.149591004361 -5.823773565428  3.966619847564
C   13.634260984330 -6.418865820679  5.269022447946
C   12.201857391911 -6.000190265164  5.572335664441
C   12.042479153757 -4.488179816906  5.624561721929
O   12.988766777787 -3.884451553996  6.498961396178
C   13.167457307304 -2.496430832750  6.245910197676
C   11.979919284654 -1.644971360295  6.671945900438
C   12.116034349909 -0.179261726483  6.268971662824
C   11.976984589406 -0.007649920613  4.764060202605
O   10.735777592051 -0.530779134136  4.303992276727
C   10.790536529233 -1.079180100689  2.994397924961
C   11.327767746242 -0.115809717985  1.932972623094
C   10.759475436027 -0.407517514969  0.550778852601
C   11.433832526721  0.411794898116 -0.540419533534
O   12.780603363066  0.005672991689 -0.773207661493
C   12.939574881255 -0.803387671125 -1.936082604395
C   12.173531472114 -2.117002837142 -1.894365207787
C   12.279357470132 -2.928456884587 -3.181111632934
C   13.687727705550 -3.431667718235 -3.444219724910
O   14.186192056682 -4.220721081489 -2.369623832201
C   15.410982477443 -4.862229888692 -2.713386980330
C   16.129739875220 -5.453072022907 -1.515223722506
C   17.469545228714 -6.090675138644 -1.879276448792
C   18.403797912491 -5.115890260266 -2.592701033558
O   18.083829425762 -4.949691905122 -3.975606016859
C   18.836057040565 -5.832045185533 -4.802400579600
C   18.367559900936 -5.874829211470 -6.252007996902
C   16.935316403443 -6.390334227102 -6.391055647008
C   15.911549004010 -5.284491997646 -6.190240102197
O   15.872697491790 -4.393911602952 -7.297632166617
C   14.955931467385 -3.322890898832 -7.095939902899
C   14.871445342651 -2.411562993552 -8.309798546558
C   13.995561723929 -1.181980490361 -8.088578013781
C   14.458933382430 -0.357645820542 -6.892852793037
O   15.868723729685 -0.209081167141 -6.842276521707
C   16.386245763469  0.666196528519 -7.831409580356
C   17.898444101404  0.811907846609 -7.728534818515
C   18.644414254638 -0.492582369093 -7.985790025024
C   18.428887915237 -1.515623889568 -6.881238787961
O   18.796051703176 -1.000574094765 -5.608296113493
C   18.807733694364 -1.995363836385 -4.588623775315
C   18.716464342292 -1.368454432780 -3.203305065159
C   17.309661212029 -0.876399673681 -2.870609213129
C   16.761785423066  0.122548373989 -3.878956922349
O   15.495911536373  0.660837911260 -3.517800321815
C   15.572314777545  1.532308152320 -2.394455984636
C   14.362202185025  2.448822522324 -2.279531804293
C   14.515592846825  3.495913407185 -1.177956522222
C   14.606379985736  2.898816986423  0.219733473393
O   14.917437284744  3.888768721148  1.192467316047
C   15.059486766401  3.359182103453  2.501953904154
C   13.723982808934  3.079829386563  3.172342491311
C   12.834336246060  4.311856069985  3.174903726068
C   11.539813469211  4.094603906937  3.942077151555
O   10.743612800608  3.054634905381  3.388022302323
C   9.527075963734  2.880518449326  4.110903388286
C   8.623722240514  1.823352441164  3.496151781305
C   7.319038994060  1.638341840204  4.259159006249
C   6.415303996174  0.609471902487  3.594736650722
O   6.025958815690  0.985107215345  2.290281078118
H   7.071055317655  0.451728418530  0.757303109826
H   8.059604506221 -1.562379300719 -0.999220188394
H   6.363197441887 -1.112031093667 -0.988036409591
H   7.913329590370 -2.053882360671  1.481774769164
H   6.212388942301 -1.666377692808  1.447034180205
H   5.870626419194 -3.568454334050 -0.220027177371
H   6.432483284879 -4.086461109047  1.355558539253
H   7.739785139031 -5.274209167906 -0.345367719763
H   8.194667200869 -3.761800530751 -1.125390491618
H   10.456118106117 -4.388644731968 -0.818880550692
H   9.915061340218 -5.854875961434 -0.004618946060
H   11.665474718652 -3.688676348923  1.271720481715
H   11.099006413703 -5.115713560875  2.085907112072
H   12.972502393805 -5.099210029257 -0.340144871518
H   12.326524635685 -6.547344361354  0.401879781865
H   14.038965328709 -4.476238118282  1.860615666955
H   14.599375641923 -6.063887481993  1.326369218948
H   14.256719612555 -4.737445329983  4.058643383550
H   15.137026421282 -6.222589248890  3.705906522319
H   13.696701579319 -7.512899663522  5.215346604488
H   14.286886166270 -6.118539039841  6.098364514691
H   11.884783789301 -6.429914576399  6.530722313399
H   11.527805418935 -6.419278355654  4.814642850039
H   12.176819320071 -4.059768880514  4.625125642481
H   11.037974995845 -4.205367016804  5.959499216200
H   14.071534158541 -2.186501068064  6.782113337822
H   13.388625650503 -2.373330796613  5.180899236617
H   11.064273375516 -2.045654416883  6.224365850666
H   11.842704294109 -1.743223559620  7.755715654035
H   11.336911565844  0.415568831314  6.761205506255
H   13.073491503006  0.223177234689  6.620988811077
H   12.017110889531  1.047752946774  4.471675585371
H   12.790653596365 -0.517999330323  4.238679826239
H   11.372560676861 -2.006834251944  3.031544541083
H   9.764366388169 -1.376466514788  2.751750424511
H   12.422970080288 -0.153522771377  1.901339311409
H   11.084955181828  0.915031905957  2.215609958608
H   9.679957453295 -0.218758480166  0.556084362534
H   10.869888112587 -1.474804597780  0.337593800898
H   11.459036398267  1.469459297970 -0.253665185676
H   10.881796627086  0.364658761963 -1.486768306139
H   14.014435173744 -0.985808638885 -2.043548015686
H   12.642238622540 -0.208327369114 -2.806504002342
H   12.538052333753 -2.713090262596 -1.050792796455
H   11.117817398128 -1.913157440193 -1.684313542341
H   11.605558142424 -3.792649039903 -3.128218659762
H   11.927283422308 -2.326824358402 -4.028393297686
H   14.379727082331 -2.595656313813 -3.592903785797
H   13.720393550572 -4.040693177038 -4.354951813692
H   15.188449312809 -5.642188342994 -3.449340329926
H   16.051057789693 -4.121292663862 -3.204044467443
H   15.473616548243 -6.182602936843 -1.025889256891
H   16.284415631745 -4.659325234435 -0.775082899734
H   17.950355576735 -6.482973186458 -0.973397720259
H   17.302236808410 -6.958520730154 -2.526506215016
H   19.452330455606 -5.429464874939 -2.519092199715
H   18.346664933395 -4.130923047542 -2.118543622953
H   18.779917503794 -6.833861188201 -4.362605313876
H   19.884737255257 -5.516845427948 -4.741689652399
H   19.054230429041 -6.500489880785 -6.838075782466
H   18.430986516172 -4.872368234782 -6.689549284042
H   16.770746082968 -7.208352343036 -5.678762212214
H   16.776612164822 -6.822403801977 -7.387080289241
H   14.902438871807 -5.690775885453 -6.053232008882
H   16.162686059421 -4.696154419447 -5.303183951640
H   15.290594522732 -2.766269853778 -6.214129211611
H   13.972574089897 -3.743769663290 -6.860017949701
H   14.520595694971 -2.991200044343 -9.172207534578
H   15.886711576114 -2.096211701485 -8.572527641528
H   14.001560592293 -0.558764422218 -8.991346872764
H   12.950166099888 -1.485458231479 -7.951931054457
H   14.173524579762 -0.845234166521 -5.953231431737
H   13.999490160560  0.637503867188 -6.870152573298
H   15.887570860352  1.635019816595 -7.709407126295
H   16.106911961753  0.280133694637 -8.816788608427
H   18.245027391376  1.589815093171 -8.421720707073
H   18.150218023722  1.167969608586 -6.723113684569
H   19.720218450514 -0.291505625999 -8.064436272129
H   18.345068228713 -0.907879326712 -8.955792501009
H   19.005671850405 -2.429821928284 -7.063734497599
H   17.374177247523 -1.800798863458 -6.817670607644
H   17.971197316462 -2.683970406348 -4.753892281933
H   19.731319917185 -2.573401654878 -4.712572199809
H   19.418058565366 -0.527528071184 -3.160717343205
H   19.058263845953 -2.076469574755 -2.438298632774
H   16.621565301326 -1.726577863821 -2.806697531743
H   17.303224772521 -0.427449100919 -1.871053891157
H   17.459465694785  0.953000299866 -4.032386096657
H   16.635397854503 -0.349225782009 -4.860037011676
H   16.486640833977  2.129634305517 -2.482320726147
H   15.676306477444  0.913289849663 -1.497873358048
H   14.198330273869  2.933648827560 -3.249485274302
H   13.465942459182  1.846935136310 -2.100081003013
H   15.416436476429  4.092281001868 -1.361885298668
H   13.686342893956  4.213071329343 -1.204612163384
H   13.666423074725  2.410757614753  0.496781284075
H   15.389767504693  2.135634896856  0.265222622861
H   15.692367422402  2.465310076849  2.454448176448
H   15.619654792282  4.107195438512  3.074836017764
H   13.207192285512  2.261183281183  2.660778078204
H   13.881086869529  2.731309040830  4.200661935432
H   13.386356848678  5.162107404611  3.594312945627
H   12.605511697455  4.591486504017  2.140085610546
H   11.753719863224  3.831185806912  4.983963402473
H   10.934763661331  5.008916037225  3.957323506503
H   9.011216495461  3.846428175848  4.146965383702
H   9.781901765605  2.613905804334  5.142689331833
H   8.415701194589  2.082864805134  2.452106982260
H   9.161115010810  0.871376043132  3.455729893630
H   6.793453321988  2.597636829765  4.325287040961
H   7.535708888015  1.347423815822  5.294545861470
H   6.935715974896 -0.351825961049  3.510916464569
H   5.511125796687  0.419752437312  4.188390020596
H   5.561653322121  1.852476870806  2.321304852880
