352
pair_id=pair_c331ce60e3e4002a477c start=3 nco_site=2 oh_site=1 attack_angle_deg=105.000000
O  -0.892359844500  1.922011143500  1.551618387200
C  -1.404048441200  1.265858264700  0.741439727900
N  -2.097646827800  0.724591544800 -0.055434653500
C  -2.188583977800 -0.380267317600 -0.939051686600
C  -1.948006681800 -1.723900442000 -0.237227573400
C  -0.600190088900 -1.812992178400  0.478380570900
C   0.590144176500 -1.814376315600 -0.479165993500
C   1.938255299900 -1.732525388000  0.236759994800
C   2.184943254300 -0.390931150000  0.940312561300
N   2.100561577500  0.715338087100  0.057787667700
C   1.411701532000  1.258791172400 -0.741747682600
O   0.904946916700  1.916913100500 -1.553406737200
H  -1.481714308000 -0.239304900100 -1.763952380200
H  -3.200357203700 -0.362292705500 -1.353096596100
H  -2.021952472600 -2.511158111200 -0.989744811800
H  -2.743023821800 -1.878381459700  0.495345010200
H  -0.520339529300 -0.972662132800  1.170725239600
H  -0.579098842200 -2.728618728900  1.073920219300
H   0.513845165600 -0.972072399900 -1.169506146300
H   0.565199503500 -2.728466370800 -1.076911659400
H   2.008388233900 -2.521130983500  0.988226084900
H   2.732711129400 -1.889708449300 -0.495850937800
H   1.477836651300 -0.247147674100  1.764520080100
H   3.196296960900 -0.378477551100  1.355590495500
O   3.750402992901  2.494524916237 -0.200048881492
C   4.975425109041  3.141807688822  0.083695334149
C   5.207688204625  4.359482293184 -0.799564932443
C   6.434662041826  5.175466390064 -0.422481011200
C   6.595992020976  6.375221960063 -1.342764218448
O   5.451859346598  7.219139720345 -1.354674370606
C   5.306508225040  8.014489995649 -0.176504002490
C   3.987831738688  7.776405778315  0.547603857609
C   2.770258835644  8.120128053881 -0.308954991475
C   2.578035503076  7.176914339409 -1.485825176445
O   1.450740031058  7.521584461084 -2.279976951586
C   0.978419354599  6.470628601322 -3.115537706244
C   1.955903459750  6.042940345310 -4.215503310982
C   2.968402618580  4.973478928916 -3.797427705820
C   2.342052728811  3.611581756924 -3.529477207365
O   3.310221796127  2.644254615598 -3.122164302943
C   2.855743344177  1.305774732925 -3.307049239185
C   3.875401925636  0.278777003075 -2.841372433719
C   3.417563415669 -1.157208275194 -3.076475723169
C   4.509708000667 -2.175031272138 -2.779610738473
O   4.153580997080 -3.490742125426 -3.191423177411
C   5.072247905069 -4.471805184161 -2.719138089417
C   4.799375563136 -5.845480602058 -3.312058499523
C   5.687537093600 -6.938868793781 -2.729960596032
C   5.369904007514 -8.303510938641 -3.322759533031
O   5.614625946474 -8.339167293697 -4.723316657391
C   5.014883355680 -9.452523136386 -5.373500474625
C   3.517536806740 -9.268613497635 -5.573175642885
C   3.223468813371 -7.939104654468 -6.251985579429
C   1.744120565434 -7.602997926260 -6.340855216146
O   1.534688654608 -6.272832455076 -6.807511829931
C   0.156681130263 -5.912061025038 -6.818302138687
C  -0.042818813064 -4.406927010011 -6.906783010174
C  -1.515488531300 -4.007603704773 -6.942605585083
C  -2.139840793124 -4.286549664589 -8.300616345149
O  -1.523036147751 -3.510302050331 -9.319677873706
C  -2.070903038320 -3.758789763542 -10.611646821230
C  -1.373036745273 -2.928347479682 -11.676157641508
C  -1.966038872983 -3.079328486620 -13.076624606857
C  -3.341578706960 -2.449602892399 -13.231587411265
O  -3.896892544777 -2.659028329493 -14.528593853358
C  -5.092423057440 -1.908141304684 -14.729500379653
C  -5.963069446006 -2.488166616730 -15.835036498581
C  -5.247970965741 -2.521796606625 -17.179784257872
C  -5.123871426529 -1.145722298037 -17.820553022416
O  -4.503842592631 -0.196412110689 -16.960913878704
C  -4.224610580193  1.052754059685 -17.595568575263
C  -2.823200359676  1.552542676495 -17.277517606668
C  -1.742260439633  0.585173121351 -17.754994150516
C  -1.691291587248 -0.706532826113 -16.953134692132
O  -0.770450224267 -1.642792370127 -17.500758560751
C  -0.632849633058 -2.799329168801 -16.683586822827
C   0.312028337293 -3.823327538893 -17.292287792386
C   0.490291477911 -5.074088429656 -16.431714255843
C   1.020699228018 -4.762903329818 -15.038006792059
O   1.388627073370 -5.922917956527 -14.297752542175
C   2.682840684541 -6.420099182685 -14.632263624303
C   3.762273485732 -5.967836555847 -13.656730659061
C   3.883498477297 -4.452922095696 -13.561265205893
C   4.982856081577 -3.989038221315 -12.616525127809
O   5.050099477182 -2.566541891008 -12.502444165876
C   4.518196351319 -2.073009193311 -11.282338055817
C   3.010178598147 -2.229248488209 -11.182048241498
C   2.278133840982 -1.483690906708 -12.299810992497
C   2.150471873337  0.010190380638 -12.035783518165
O   1.408063366479  0.711681748035 -13.026303429888
C   0.093253998437  0.199193393134 -13.212175240040
C  -0.897146727361  1.274522736139 -13.626262620019
C  -0.977188834260  2.405836033702 -12.610991560229
C  -1.358596059964  1.909354991495 -11.222833768325
O  -2.522585238436  1.093131451698 -11.249570464712
C  -2.760253678940  0.449118510672 -10.001255154238
C  -4.006283131747 -0.419452945392 -10.035156323143
C  -4.213930034690 -1.244540342084 -8.769351201210
C  -4.541870317197 -0.396824800733 -7.549826312199
O  -3.525652175047  0.532245305211 -7.208114833843
C  -2.361825996553 -0.083213516807 -6.667053557573
C  -1.382854360652  0.943198093402 -6.117369546128
C  -0.118918035618  0.319755275740 -5.526354422432
C   0.773055232645 -0.336515919778 -6.569975124286
O   1.950416457326 -0.903985616515 -6.001802317001
C   2.747402126441 -1.560201382172 -6.983271179219
C   3.948001927063 -2.282161606045 -6.385917262716
C   4.794679889289 -2.998198047032 -7.435764911891
C   4.076140527617 -4.175648840362 -8.078247584551
O   4.806337075823 -4.730219631547 -9.168078911627
C   4.416468086274 -6.061957148906 -9.471904618655
C   2.928933287536 -6.211398455105 -9.755014712682
C   2.527007638501 -7.627767154897 -10.148997964272
C   1.042296096003 -7.737383503377 -10.452182493672
O   0.664206005347 -9.065054469918 -10.790770875631
C  -0.739504527217 -9.233004089566 -10.903322815706
C  -1.351840481931 -8.399445837732 -12.017204206003
C  -0.647013563462 -8.625494320704 -13.344081977329
C  -1.249377247259 -7.785059535300 -14.457172745246
O  -2.622869259943 -8.093505206332 -14.661839387678
C  -3.187807022418 -7.425166521609 -15.781132060796
C  -3.452492240309 -5.947464352555 -15.537109020702
C  -4.514801740048 -5.701599516498 -14.469685110981
C  -4.179296826098 -6.287276514629 -13.106937458540
O  -5.063011600564 -5.808475643523 -12.098669686974
C  -4.820614010954 -6.391148757599 -10.821307318437
C  -5.533736429046 -5.626137914619 -9.716618171516
C  -5.267005917639 -6.179258271551 -8.322956436398
C  -5.930613759990 -5.325430291230 -7.254074636419
O  -7.347442630023 -5.331281504953 -7.390441687729
C  -7.975958372782 -4.200264038992 -6.796417412065
C  -8.004068487559 -2.992052054879 -7.721480345419
C  -8.748137004742 -1.803591361794 -7.126940966361
C  -8.818592758365 -0.634977249579 -8.097553969006
O  -7.528467842017 -0.142854382683 -8.432286489584
C  -7.566202209729  0.878204445337 -9.424478897558
C  -7.740702150418  0.332432123302 -10.834426372122
C  -7.582819727867  1.405959471544 -11.907177970781
C  -7.747950432774  0.858439839763 -13.315807935659
O  -7.599763027141  1.872050425294 -14.303753102474
C  -7.559298335774  1.357420891891 -15.628554469331
C  -8.923929895463  0.938336744269 -16.162156332116
C  -8.848895928473  0.205003097788 -17.500863438742
C  -8.219422073538  1.023788843445 -18.618636790650
O  -8.031199794810  0.246404375603 -19.797119500439
C  -7.381300081727  0.969664633979 -20.833263811524
C  -7.078497791317  0.101595898607 -22.047397727919
C  -6.162173478020 -1.070830104733 -21.712929414613
C  -6.901486442295 -2.173035802070 -20.967471819436
O  -7.895355371087 -2.767819664068 -21.778726202206
H   3.582251820582  2.528949343017 -1.170794710444
H   4.954235035936  3.425713406555  1.142206072915
H   5.788997150612  2.414302488019 -0.026169601759
H   5.279711353000  4.040851583176 -1.845695595493
H   4.322539613363  5.000000693720 -0.755573624994
H   7.329693424692  4.541631878280 -0.454584776770
H   6.346536106385  5.510178119634  0.617102754956
H   7.472732292933  6.981068657515 -1.085793210519
H   6.742168991035  6.040055204799 -2.376009129979
H   5.381085877236  9.061041392067 -0.494488923837
H   6.160717799727  7.833271776786  0.486674268060
H   3.968134643397  8.359404229198  1.477844359946
H   3.928933902976  6.727315810796  0.856861561800
H   1.856492007139  8.110496738728  0.297902529682
H   2.856041008538  9.145782847331 -0.684756865723
H   2.445591755128  6.150386444999 -1.128689445402
H   3.458801232033  7.202840954191 -2.135631847081
H   0.690199589398  5.628545016302 -2.478674653288
H   0.047489920601  6.850526550090 -3.555238637446
H   2.475329324993  6.939040602016 -4.576031386857
H   1.397011337381  5.664697648663 -5.081174828694
H   3.522537696555  5.290840299383 -2.912121750204
H   3.734306123404  4.852511144986 -4.573571441523
H   1.583632911508  3.667077571893 -2.741835874777
H   1.838045128461  3.245719892316 -4.430810480272
H   2.648018616525  1.168544398791 -4.373880661273
H   1.908266816068  1.185423703109 -2.770404430204
H   4.102481004406  0.430329391268 -1.780405516253
H   4.821071555561  0.458877372533 -3.365210521821
H   3.085591448523 -1.272636139656 -4.112746429833
H   2.529132513997 -1.380245096818 -2.474957283215
H   5.436344740930 -1.907522136096 -3.299541031443
H   4.738244761523 -2.192574725642 -1.708143906464
H   6.088641013604 -4.141964780661 -2.961322535769
H   4.994975080483 -4.501908109480 -1.626679886362
H   4.927849753320 -5.800563645712 -4.398919086625
H   3.744549919298 -6.098800365007 -3.157145997810
H   6.738744509389 -6.697319514373 -2.923059942631
H   5.581158060361 -6.960847233615 -1.638388547907
H   4.320308710547 -8.555034834917 -3.141984366635
H   5.974599395561 -9.093721863883 -2.862081484452
H   5.250963478810 -10.360593413694 -4.806594226219
H   5.516657595395 -9.545994126277 -6.343556854605
H   3.096485884910 -10.095109536185 -6.158940037516
H   3.001994569485 -9.305392427175 -4.607508546417
H   3.731734800938 -7.136373673912 -5.708469108325
H   3.667851933807 -7.926038012831 -7.250971057636
H   1.219845163943 -8.294308732552 -7.009821976359
H   1.277910793470 -7.690842401571 -5.353373964239
H  -0.311826081161 -6.299282240167 -5.906693893577
H  -0.317440703621 -6.426361887042 -7.659935270401
H   0.470633443876 -3.934579528873 -6.059965008959
H   0.459597659762 -4.028209086306 -7.803660015590
H  -1.618966542915 -2.938708971715 -6.724920568364
H  -2.063006293687 -4.529206932748 -6.148099173491
H  -2.031905232626 -5.341792478866 -8.571050997615
H  -3.211317122300 -4.060011744888 -8.301152099719
H  -1.969621249948 -4.827312965129 -10.828493826996
H  -3.141486815152 -3.535327780412 -10.576292641781
H  -0.311752090779 -3.202976968882 -11.677249394295
H  -1.402606065669 -1.876959038167 -11.374013218564
H  -1.300228734050 -2.627583463978 -13.818806447500
H  -2.019722431082 -4.139210507657 -13.342324653325
H  -4.044681525881 -2.867493081103 -12.503244054961
H  -3.289583318358 -1.369025466311 -13.057456989239
H  -4.787725145205 -0.883132560448 -14.968699796682
H  -5.639803270884 -1.872930290647 -13.780105040698
H  -6.264342674729 -3.502516427601 -15.546559188596
H  -6.896552447970 -1.921103099360 -15.925692235489
H  -4.247603360539 -2.943258031193 -17.030103572231
H  -5.759697404869 -3.205626723953 -17.870041576309
H  -6.108184490741 -0.749057262292 -18.086427983160
H  -4.538243709279 -1.201541256343 -18.745619433913
H  -4.349915220972  0.939393897199 -18.678271244323
H  -4.987722465943  1.766027218772 -17.264117882150
H  -2.730637018818  1.694070849512 -16.195073648624
H  -2.671514753771  2.543976464511 -17.724105065303
H  -0.752998494666  1.058086406437 -17.719479004589
H  -1.906986439837  0.340295461614 -18.810275759513
H  -2.672875624416 -1.188548860902 -16.925740892020
H  -1.409641521054 -0.507176340329 -15.914086899872
H  -1.627111431767 -3.230722955725 -16.522808047988
H  -0.259386742431 -2.465987494748 -15.710828456507
H   1.284296238683 -3.345482756122 -17.458553177831
H  -0.051067583865 -4.090798033179 -18.291781874121
H  -0.461319945160 -5.608584112181 -16.346959222459
H   1.167205964492 -5.778138993341 -16.928988741962
H   0.267571928319 -4.236105507883 -14.444039338777
H   1.882011100323 -4.092245393137 -15.103181543644
H   2.607061885059 -7.514134735109 -14.652273083375
H   2.929723999222 -6.108685002398 -15.652786704040
H   3.537167379936 -6.371188202938 -12.664295408153
H   4.731816741452 -6.398792797081 -13.935321718248
H   4.066597685016 -4.026459926665 -14.553883069785
H   2.926356725419 -4.034810118152 -13.236721479457
H   4.854164553081 -4.419225564015 -11.617887999546
H   5.962014083992 -4.329905693645 -12.972122228351
H   5.039273987593 -2.584098925068 -10.464438341218
H   4.800556826318 -1.016384918720 -11.222016743696
H   2.760248413823 -3.295395720480 -11.208513030627
H   2.649820693894 -1.876314247744 -10.208031208394
H   1.280175594493 -1.910158503558 -12.442769891838
H   2.796784882901 -1.638323009744 -13.252602312633
H   3.138059951892  0.481641868086 -11.987844420116
H   1.673312899185  0.194839690749 -11.066930149207
H   0.154169871409 -0.599834940764 -13.960058963294
H  -0.231045943526 -0.261233498272 -12.274209100367
H  -0.608428200686  1.670264282733 -14.607613238688
H  -1.893287673390  0.832367209965 -13.755009237438
H  -0.014912787246  2.931176050494 -12.568564378983
H  -1.713723920332  3.148230030849 -12.942762290547
H  -0.544576509789  1.318926855794 -10.788864299634
H  -1.546046651427  2.742451109621 -10.534950144455
H  -2.846738138309  1.221142998546 -9.228327661080
H  -1.878742454309 -0.154660549829 -9.760136599366
H  -4.877639347967  0.216191638115 -10.219190109496
H  -3.945147370857 -1.078414121467 -10.907597347728
H  -5.012924491708 -1.978747285869 -8.932991443355
H  -3.311555903672 -1.831723147261 -8.574814181169
H  -4.748175148328 -1.015355857490 -6.668283646474
H  -5.447745431071  0.192387250258 -7.729250442546
H  -2.672511521457 -0.775888960315 -5.877333227127
H  -1.893880413387 -0.679843187253 -7.454984571436
H  -1.114377616747  1.645073863268 -6.914914564706
H  -1.900924456211  1.549126673337 -5.364089583902
H  -0.387274460863 -0.422193294784 -4.766007105065
H   0.462645759239  1.080491983340 -4.994189599167
H   1.079470897257  0.392291993427 -7.328559262904
H   0.235203276622 -1.133949427025 -7.093172009085
H   2.101632663839 -2.262088964962 -7.519427894864
H   3.073088347174 -0.808421793744 -7.710815097433
H   3.601875877244 -3.001235151903 -5.634344128479
H   4.559383627960 -1.554990695786 -5.838652930339
H   5.736159698339 -3.354178744567 -6.999983077697
H   5.089501882435 -2.286853025721 -8.214286602967
H   3.099824367853 -3.870040345737 -8.466354310053
H   3.893416196866 -4.961552963177 -7.336193064544
H   4.731966653943 -6.698098164899 -8.639122116595
H   5.007682785417 -6.382066895067 -10.336823529064
H   2.637152451554 -5.511192204506 -10.544789831196
H   2.350614023606 -5.907387824384 -8.876198508831
H   3.101987031558 -7.961349990997 -11.019665742708
H   2.785132208957 -8.332925114144 -9.351781952738
H   0.777496699741 -7.074815524380 -11.282931292969
H   0.449406706797 -7.422275889974 -9.587495511488
H  -0.904653131695 -10.300033098272 -11.091902824212
H  -1.192190185881 -9.012141504500 -9.929387273340
H  -1.309127580875 -7.335960875757 -11.757254301077
H  -2.419151858752 -8.628236462359 -12.124164049284
H  -0.712572566752 -9.685567558900 -13.614131840192
H   0.423689201734 -8.412304032389 -13.235935118627
H  -1.167826633047 -6.721837266621 -14.210659304409
H  -0.716974944893 -7.944165868113 -15.402041191197
H  -4.125854154331 -7.942043451537 -16.013141947893
H  -2.525855756899 -7.584233473238 -16.640644240205
H  -3.751210832690 -5.463228628240 -16.476239469883
H  -2.522425518994 -5.452239917788 -15.243034674669
H  -5.481875197008 -6.097326429414 -14.800224846304
H  -4.672667099868 -4.625449767146 -14.341457253859
H  -4.232815775675 -7.381350086829 -13.128669806361
H  -3.160104978158 -6.019187309802 -12.812902455850
H  -3.740501595543 -6.405094352452 -10.641676996813
H  -5.152560167935 -7.434570253805 -10.855694765409
H  -6.611936319552 -5.618789570129 -9.913171804265
H  -5.234263392925 -4.573316329034 -9.762903671636
H  -5.647298152839 -7.204775721447 -8.256251501312
H  -4.187655051590 -6.252213816350 -8.146225457645
H  -5.694933496804 -5.683736844477 -6.244940383848
H  -5.574562275512 -4.291765364200 -7.318545366170
H  -8.996804988550 -4.504889213938 -6.539164228877
H  -7.473120657447 -3.970886435146 -5.850335540501
H  -6.984437627628 -2.692972268802 -7.983052341027
H  -8.465389466787 -3.282198061521 -8.672316878864
H  -8.246694985376 -1.481154723096 -6.207355677366
H  -9.756897398433 -2.111307825408 -6.824884222426
H  -9.394128840094  0.197606738780 -7.675996674959
H  -9.320329471423 -0.941510005733 -9.020801427545
H  -8.360110382935  1.589142093700 -9.170298905693
H  -6.626176181902  1.435427843362 -9.346345588069
H  -8.720407779515 -0.146852666663 -10.933715505791
H  -7.014511993889 -0.470885403018 -11.002251203503
H  -8.308333022989  2.210862589022 -11.744578720778
H  -6.600385545674  1.884092460914 -11.820674093251
H  -8.734392596175  0.399056910252 -13.433075387873
H  -7.004589393594  0.077964833821 -13.508343177222
H  -6.848617123477  0.524716653768 -15.653203456130
H  -7.128377968375  2.147406863090 -16.252845281110
H  -9.560783660291  1.825512776210 -16.252939211744
H  -9.423049836242  0.302329147637 -15.422909346801
H  -9.845879690110 -0.122200589829 -17.819773246938
H  -8.275893019861 -0.720042986006 -17.379911309014
H  -7.241214647117  1.409355894799 -18.315605790981
H  -8.842302042251  1.889456943863 -18.869112748030
H  -6.453351800995  1.383402707010 -20.423226903295
H  -8.023458743563  1.817436048190 -21.099853285617
H  -8.018326992138 -0.291426355663 -22.452023714799
H  -6.638209317019  0.717300899759 -22.842858287178
H  -5.747115960369 -1.499883863808 -22.633338859057
H  -5.303231662842 -0.714469615220 -21.131554315671
H  -7.385434732489 -1.761541781344 -20.072916386784
H  -6.208445171888 -2.956531349594 -20.633229484631
H  -8.415524258312 -3.433687408409 -21.271867352769
