50
pair_id=pair_2b9627b1261e4b218da8 start=4 nco_site=2 oh_site=2 attack_angle_deg=105.000000
C   0.284581330700 -2.856296821600 -1.075228802200
C   0.162525852300 -1.597457455400 -0.204947230400
C   0.845005092100 -1.904537770700  1.131145514700
C  -1.328669048700 -1.291252660800 -0.005722197300
C  -1.570475083400  0.087872243400  0.610820554000
C  -0.957110448900  1.181183157800 -0.269036073900
C   0.549683356000  0.994266183800 -0.497159448500
C   1.002261202900  1.956948628000 -1.604047402300
C   1.307902346100  1.391971275300  0.789954740500
N   2.703572888200  1.171113099200  0.732383851000
C   3.569168631800  0.422084370500  0.420855653800
O   4.549802891200 -0.154504117100  0.185714036600
C   0.831914196600 -0.441038993400 -0.968894226600
N  -2.963431143600  0.322177330700  0.785377568700
C  -4.013442667400  0.395831636900  0.235484889300
O  -5.116375984200  0.510373170000 -0.104212560000
H  -0.200973184600 -3.701335647600 -0.592771820900
H  -0.180392270100 -2.708228461400 -2.047427195000
H   1.331183276900 -3.106678504200 -1.231501354200
H   0.669336818000 -1.138529666000  1.878580217000
H   1.919144116400 -2.004976794700  0.992809095200
H   0.466878515000 -2.844074041600  1.529162011100
H  -1.834031280800 -1.321260360500 -0.974603031900
H  -1.780892848400 -2.056062502900  0.628522771700
H  -1.151102782700  0.129873374500  1.620567689400
H  -1.463600897200  1.156635133100 -1.237165534300
H  -1.148305840500  2.158375955300  0.179489575800
H   0.772454559600  2.985326617500 -1.333946347600
H   2.075584442100  1.874781849200 -1.759270064200
H   0.502011787900  1.732699420800 -2.543044673500
H   0.909588571900  0.871441133300  1.663883790100
H   1.176321145700  2.466024633200  0.954683369000
H   0.487257832900 -0.500634134700 -2.004285460000
H   1.911225245100 -0.607683746400 -0.987976068100
O  -0.351562396329 -0.494121644795 -0.468482804227
C  -0.038359914623 -1.790761553581 -0.934931843852
C   0.072756060917 -1.891084218288 -2.458173544703
C  -1.260017358356 -1.809855734916 -3.208614550616
C  -1.925818179441 -0.426209740369 -3.196642841777
O  -2.638805753036 -0.145457483268 -2.024466314168
H   0.327698334677  0.119411972532 -0.771637322947
H   0.904749824198 -2.125689011424 -0.481016801393
H  -0.843284545605 -2.432397227713 -0.569538311511
H   0.539022530398 -2.851122663028 -2.688974173840
H   0.741917755414 -1.103823668005 -2.820222015751
H  -1.078144034172 -2.085743096031 -4.249256985045
H  -1.962130886918 -2.531346566469 -2.786612164353
H  -2.663356642145 -0.379112941579 -4.002870216029
H  -1.165225807432  0.348552301194 -3.388178605764
H  -2.019420472614 -0.196566962198 -1.276295009009
