50
pair_id=pair_2b9627b1261e4b218da8 start=3 nco_site=2 oh_site=1 attack_angle_deg=105.000000
C   0.284581330700 -2.856296821600 -1.075228802200
C   0.162525852300 -1.597457455400 -0.204947230400
C   0.845005092100 -1.904537770700  1.131145514700
C  -1.328669048700 -1.291252660800 -0.005722197300
C  -1.570475083400  0.087872243400  0.610820554000
C  -0.957110448900  1.181183157800 -0.269036073900
C   0.549683356000  0.994266183800 -0.497159448500
C   1.002261202900  1.956948628000 -1.604047402300
C   1.307902346100  1.391971275300  0.789954740500
N   2.703572888200  1.171113099200  0.732383851000
C   3.569168631800  0.422084370500  0.420855653800
O   4.549802891200 -0.154504117100  0.185714036600
C   0.831914196600 -0.441038993400 -0.968894226600
N  -2.963431143600  0.322177330700  0.785377568700
C  -4.013442667400  0.395831636900  0.235484889300
O  -5.116375984200  0.510373170000 -0.104212560000
H  -0.200973184600 -3.701335647600 -0.592771820900
H  -0.180392270100 -2.708228461400 -2.047427195000
H   1.331183276900 -3.106678504200 -1.231501354200
H   0.669336818000 -1.138529666000  1.878580217000
H   1.919144116400 -2.004976794700  0.992809095200
H   0.466878515000 -2.844074041600  1.529162011100
H  -1.834031280800 -1.321260360500 -0.974603031900
H  -1.780892848400 -2.056062502900  0.628522771700
H  -1.151102782700  0.129873374500  1.620567689400
H  -1.463600897200  1.156635133100 -1.237165534300
H  -1.148305840500  2.158375955300  0.179489575800
H   0.772454559600  2.985326617500 -1.333946347600
H   2.075584442100  1.874781849200 -1.759270064200
H   0.502011787900  1.732699420800 -2.543044673500
H   0.909588571900  0.871441133300  1.663883790100
H   1.176321145700  2.466024633200  0.954683369000
H   0.487257832900 -0.500634134700 -2.004285460000
H   1.911225245100 -0.607683746400 -0.987976068100
O  -4.058905159450  0.799083693748  2.904814569288
C  -4.082699440447  1.010138836583  4.301895495021
C  -2.881129643405  1.797548565720  4.829998342562
C  -1.559524460231  1.023498073043  4.845820212826
C  -0.958448076515  0.741487826436  3.461230853071
O  -1.524577878904 -0.359179574987  2.806097858835
H  -4.027940002695  1.654136921579  2.460240122048
H  -5.008035199625  1.534945727733  4.577581379742
H  -4.107682120334  0.012195268943  4.745288024129
H  -3.113730187734  2.101125689787  5.852781351256
H  -2.761313206785  2.708506552808  4.234653728006
H  -0.833359273100  1.608163456643  5.414132564112
H  -1.699922540031  0.070201302189  5.358764738954
H   0.101273274549  0.496712808045  3.576380841732
H  -1.030512698657  1.648318947735  2.838409101709
H  -2.476458557047 -0.189381003746  2.700730757306
