373
pair_id=pair_7d06ceb5c63af0dd1f38 start=4 nco_site=2 oh_site=2 attack_angle_deg=105.000000
C  -2.446703299700 -1.853063307200  0.000123365600
C  -1.098027931500 -1.205932880900 -0.000066001300
C  -0.977301580500  0.191279927900 -0.000010540500
C   0.267967642200  0.804165982100 -0.000123504100
C   1.417991736400  0.026293504500 -0.000147019000
C   1.317979512900 -1.362983689200 -0.000021543200
C   0.069352399300 -1.955586166900 -0.000065144800
N   2.632038095300  0.666782419400 -0.000316067500
C   3.817430935400  0.550232190400  0.000086689700
O   4.971044958500  0.643019233500  0.000273142600
N  -2.082630512100  1.005769681200  0.000064390200
C  -3.274049916600  1.044002541200  0.000022428200
O  -4.404742005300  1.293651270200  0.000058905200
H  -3.016326284800 -1.552982801300  0.880538512500
H  -2.353428997400 -2.935486979200 -0.000257502200
H  -3.016936278500 -1.552395575500 -0.879688210700
H   0.338560408400  1.879666146500 -0.000123025800
H   2.213426184600 -1.965662440300  0.000120232800
H  -0.000809997700 -3.033428387600  0.000035023700
O  -1.509699045307  13.814764663848 -1.214548894833
C  -1.082520046595  15.155149883260 -1.228427913766
C  -2.194190749390  16.153834718369 -0.909354688730
C  -2.658539638446  16.155145597978  0.556935035062
C  -3.700106164782  15.091648784343  0.910365054904
O  -3.195773804792  13.763960010042  1.007655054337
C  -2.529980896470  13.506177912124  2.238207900530
C  -1.755487801755  12.197247991796  2.200677483555
C  -2.658849047913  11.007101795837  1.909276979263
C  -1.912024192593  9.683096815493  1.881652254552
O  -2.754659588259  8.585907438564  1.554635086603
C  -3.642519663107  8.225683118560  2.615251084731
C  -5.080047212820  8.052273796138  2.147019620552
C  -6.011404019707  7.641180037709  3.285281928446
C  -7.377734021605  7.164918073619  2.812325421253
O  -8.195018571016  8.194370161816  2.266935373367
C  -9.462763433665  7.674197744062  1.869022321648
C  -10.422755492164  8.727610549427  1.333016270934
C  -11.681992100990  8.100106553059  0.745804455206
C  -12.578697984141  9.103881507431  0.039147824674
O  -13.058497779545  10.122069215797  0.910073267184
C  -14.177742995685  10.813731056930  0.363480955979
C  -14.515093011761  12.080765588187  1.136360947669
C  -13.440343505925  13.151565972593  0.985014081097
C  -12.103269682246  12.738531781080  1.575959333826
O  -11.094408280966  13.717488598382  1.357879591334
C  -9.819226955180  13.280899601833  1.814322297620
C  -8.707147970008  14.227038789634  1.391367918641
C  -7.320295582938  13.751496908622  1.810829339756
C  -7.021384663215  12.358982680581  1.275085285183
O  -7.367908794203  12.222706241529 -0.093907432681
C  -6.440275722134  12.812613007239 -0.992182255740
C  -5.096350677556  12.100469326636 -0.970656881794
C  -4.236749563573  12.330452104083 -2.205856421530
C  -3.082109247654  11.340268460376 -2.220208775531
O  -3.573632412394  10.014020110185 -2.065070574499
C  -2.545130133687  9.039034694369 -1.944521926202
C  -3.123847324353  7.651909346495 -1.713356894758
C  -2.067778145647  6.558398419100 -1.588864425125
C  -1.230254356757  6.676398108132 -0.325477384295
O  -0.365415082912  5.558098673101 -0.165309356489
C   0.448553160676  5.649145541286  0.997826383920
C   1.100305775883  4.312147807892  1.310823473114
C   1.962329701945  3.809100297910  0.162242549347
C   2.372712906917  2.359557627660  0.374206344500
O   1.220777286180  1.529141044812  0.464358489552
C   1.485001017225  0.215446715095  0.944017519807
C   0.179692510811 -0.494321890916  1.269776679862
C  -0.640115536799  0.327203751290  2.256677812082
C  -2.052045889455 -0.193704807323  2.464379886409
O  -2.815987549896  0.689268134149  3.274583509696
C  -4.154077753088  0.260993117620  3.479260084052
C  -4.950225198864  0.080082616156  2.188269617327
C  -6.460720248896  0.128781941497  2.400872435184
C  -6.931862594024  1.551864680232  2.656443318363
O  -6.742694197783  2.375404754736  1.505779729134
C  -6.523915241862  3.747333309066  1.819597574230
C  -5.048351782969  4.117704261156  1.810320249578
C  -4.382729925401  3.865943827386  0.460554057629
C  -5.154273587643  4.486463135835 -0.696965573522
O  -5.413210157359  5.872415949623 -0.491297062803
C  -6.517501402705  6.342338235530 -1.262619789325
C  -6.811591225915  7.814540132092 -1.010780755239
C  -8.136140920744  8.272186160153 -1.608220025088
C  -8.393498495337  9.760844757000 -1.392776911294
O  -9.782310699099  10.080486819096 -1.423497270683
C  -10.022041737106  11.462589833884 -1.655333521271
C  -10.070988649986  11.767033680049 -3.141661275721
C  -11.122104468548  10.900348364717 -3.818025999805
C  -11.208551389052  11.098854537805 -5.321028974234
O  -12.192637458777  10.250203309897 -5.904499370433
C  -12.430888739639  10.520378024262 -7.278047615728
C  -13.022303401461  11.903611282285 -7.517404889831
C  -14.198993041933  12.171181826041 -6.586145891845
C  -14.657068898976  13.622435943037 -6.591838301517
O  -15.799504644268  13.870049701733 -5.782484280103
C  -15.622442510369  13.478611396667 -4.426414148728
C  -16.760951798751  13.942373567274 -3.531988934150
C  -16.652046240360  13.419812735974 -2.101241133237
C  -16.691681079189  11.898163422070 -2.039869872052
O  -15.519332454953  11.312621432582 -2.597680866825
C  -15.669954431315  9.920762888353 -2.860645041686
C  -14.405151480526  9.311364659035 -3.444405358243
C  -14.531700247305  7.816308944593 -3.706047668854
C  -13.259575668833  7.211040280204 -4.278167877212
O  -13.362184835186  5.800594797084 -4.471482131975
C  -12.269303019046  5.291505820949 -5.223220908250
C  -12.184384722325  3.771002834904 -5.241798667678
C  -13.436364237663  3.099578511464 -5.794386915811
C  -14.575594716862  3.097112082847 -4.789409369023
O  -14.267929778830  2.315355083813 -3.636630429764
C  -15.241072753159  2.441201123425 -2.596657115767
C  -14.740417601400  3.286063101819 -1.431538415973
C  -14.173739752837  4.613441003028 -1.900592248263
C  -13.680958579031  5.498008637644 -0.765697566396
O  -12.854398597481  4.830639571361  0.173480162854
C  -11.656602440150  4.293175706572 -0.377514580084
C  -10.825454714064  3.613562014200  0.701937391325
C  -9.633498510178  2.826330706853  0.165110857487
C  -10.034838477115  1.640491953379 -0.706839142007
O  -8.992580760007  0.693802565717 -0.908057278874
C  -7.780522108450  1.291675654227 -1.345986982737
C  -6.779515206380  0.281806235059 -1.888241823410
C  -5.433196017233  0.922569692873 -2.218821054710
C  -5.513935998023  1.924012619330 -3.362447863017
O  -4.333593382525  2.709412082473 -3.486752072273
C  -4.316564812453  3.458347110247 -4.701314350308
C  -3.476397516564  4.719746045791 -4.591469147007
C  -3.325543155153  5.451980314276 -5.918116879670
C  -2.617723569199  6.785242830185 -5.740430828141
O  -3.310989401010  7.652568141337 -4.854410759115
C  -4.410824001155  8.315300943530 -5.471355792060
C  -5.215649551899  9.131506180123 -4.471908806102
C  -6.304842287456  9.987200009131 -5.107261511956
C  -7.410490878135  9.142674294103 -5.719967092924
O  -7.979907834138  8.258969561407 -4.763622689961
C  -9.189265188551  7.659487908612 -5.201134724236
C  -9.006772892683  6.733713692198 -6.392220667165
C  -7.955119468655  5.656036052176 -6.146680500223
C  -8.259348684062  4.760136403398 -4.948603516550
O  -7.527058266939  3.540360175522 -4.988194280287
C  -8.177367931008  2.540838971932 -5.768861778782
C  -9.161767542536  1.720297715557 -4.948286873073
C  -10.028050341744  0.787435295645 -5.784775581074
C  -10.904313645063 -0.074291661371 -4.890672122633
O  -10.094827944945 -0.878228303511 -4.038717815384
C  -10.761666867316 -1.321619869372 -2.863781422222
C  -9.801316926753 -2.088911349578 -1.969499174121
C  -9.235728738578 -3.309858283924 -2.680429681229
C  -7.998443148289 -3.860638863921 -1.987769276938
O  -6.907265388932 -2.954008998122 -2.089223029829
C  -5.703631831034 -3.457339928978 -1.518952915421
C  -5.636512731141 -3.258403872370 -0.013164261835
C  -4.323020138040 -3.725485861409  0.608923358964
C  -3.091220125094 -3.062470329101 -0.000263400501
O  -3.153958558162 -1.653325401483 -0.000165317772
H  -2.095132623927  13.696817983356 -0.428637948858
H  -0.659784568062  15.336016470285 -2.225060251835
H  -0.252158402498  15.260149035712 -0.518723963391
H  -1.846972829081  17.160627718518 -1.179763356502
H  -3.050814946719  15.959511540783 -1.563892827327
H  -1.788311617946  16.060092193333  1.213754022103
H  -3.082412431532  17.141567277630  0.792462793581
H  -4.487879118881  15.079187262970  0.149745031522
H  -4.197028976001  15.319975855777  1.860994240891
H  -1.865984035278  14.347505865690  2.463312003944
H  -3.293102404305  13.479809752405  3.023998453972
H  -1.225573954013  12.037778001398  3.147845947356
H  -0.976908477333  12.258974834248  1.431685349138
H  -3.158906557470  11.147077785219  0.946534370948
H  -3.468926577608  10.969995578166  2.645225810985
H  -1.112529672776  9.712020153816  1.133375344483
H  -1.427300901493  9.475096043877  2.841918142917
H  -3.262835943231  7.292870932774  3.048345409174
H  -3.588929744799  8.973522522939  3.413591839729
H  -5.100017783583  7.301040335082  1.350233240948
H  -5.434126429942  8.977803610528  1.679530414557
H  -6.138648137672  8.478074157778  3.981170347584
H  -5.528465105815  6.847263255870  3.869356832483
H  -7.935473153257  6.709972030659  3.639935850666
H  -7.262848145238  6.395077789140  2.042891453066
H  -9.908915305864  7.159694066464  2.727480284191
H  -9.277990050012  6.908449302252  1.107251291441
H  -9.916286607704  9.322804011813  0.568823559152
H  -10.682597926346  9.441815912663  2.122133153544
H  -12.248627920595  7.601381581065  1.540373564428
H  -11.392251032906  7.305761724203  0.047959526075
H  -13.446889247640  8.605036056975 -0.407047711332
H  -12.034991214140  9.596806125764 -0.774154236933
H  -15.021035910797  10.113103171981  0.361279221279
H  -13.953285703697  11.056385652217 -0.681566322058
H  -15.486174622316  12.474868630027  0.810217101125
H  -14.634627862133  11.828513647536  2.195879874917
H  -13.758829892444  14.092269699321  1.450502685602
H  -13.299704030828  13.387284227195 -0.076167336410
H  -12.188066991888  12.566018524307  2.654545636028
H  -11.763629842699  11.798856834434  1.127441618999
H  -9.645163679564  12.279797027583  1.405153218885
H  -9.859278882177  13.182676422241  2.904692619186
H  -8.914460937600  15.229047094696  1.785731782290
H  -8.743422525558  14.330190483236  0.300800040327
H  -6.562927222446  14.456639623884  1.449377933989
H  -7.232613960125  13.761178412643  2.904363571087
H  -5.973539098255  12.075868354449  1.419913720327
H  -7.608918540955  11.605800078311  1.813397349612
H  -6.345550230735  13.880455478402 -0.771156023040
H  -6.888683151238  12.743371265805 -1.989704004354
H  -4.536204159667  12.381204473690 -0.074097460155
H  -5.281052253430  11.023765675410 -0.871565546546
H  -4.847275017073  12.184549285625 -3.104092013107
H  -3.879154959195  13.366223565493 -2.247612444478
H  -2.391463718543  11.539055295983 -1.393812581765
H  -2.505266082465  11.394328724490 -3.150617611400
H  -1.892592708802  9.333850862602 -1.116950822417
H  -1.946299736702  9.062254932428 -2.861835726633
H  -3.743717767886  7.669658182356 -0.809809721276
H  -3.811793231281  7.423616973800 -2.535305895359
H  -1.410230175702  6.566896109360 -2.465211922556
H  -2.541117659599  5.569695184397 -1.594109411451
H  -0.619032047569  7.584780561694 -0.336639409665
H  -1.877404213538  6.730535655528  0.557432023801
H  -0.176057571381  5.990761842339  1.831883299341
H   1.204069179966  6.421425762604  0.816519785787
H   1.689511829090  4.365006186503  2.234526126012
H   0.311421418360  3.575254485840  1.501411154660
H   2.837246814552  4.456461891034  0.027016621039
H   1.385103622040  3.882639743149 -0.767058657858
H   2.997058423703  1.985038003906 -0.445100020444
H   2.947396754475  2.257651294386  1.301038793507
H   2.108301361253  0.297373145104  1.841038332260
H   2.066733358870 -0.318023284465  0.183621529812
H   0.358386865986 -1.503233834250  1.660672873260
H  -0.396862077440 -0.625409537423  0.346549360100
H  -0.123778703249  0.395789903042  3.220680588772
H  -0.702745420434  1.360045671011  1.894487842714
H  -2.047563644878 -1.185026673916  2.930133942764
H  -2.556135066854 -0.287629714460  1.498152389170
H  -4.615730617979  1.023144950637  4.115307334550
H  -4.137291255442 -0.660770444079  4.071721006388
H  -4.668644651607  0.869871914562  1.483985437719
H  -4.655539418637 -0.860431949951  1.709720627053
H  -6.983707889035 -0.253266815838  1.515594407288
H  -6.741619369318 -0.532906130823  3.229179150736
H  -7.996420803541  1.585133983515  2.916423128761
H  -6.387549923503  1.993772885865  3.496953874207
H  -6.997554200318  3.971546142575  2.783016769718
H  -7.068836788631  4.333390220697  1.072392686622
H  -4.934458950812  5.174345333106  2.076196631175
H  -4.526846829148  3.556823871438  2.595478514736
H  -4.275295914665  2.787908284586  0.297014377949
H  -3.360886447298  4.265286232996  0.471351688283
H  -4.617332520129  4.381060817509 -1.647002267138
H  -6.113900944931  3.975571678186 -0.828186542495
H  -7.392049112076  5.735928448495 -1.002789007998
H  -6.302976548556  6.158474782617 -2.321260509818
H  -6.832401370045  7.992720032276  0.069009957864
H  -5.988781605376  8.431743799919 -1.387195977041
H  -8.957259909453  7.700211855464 -1.162232540102
H  -8.175262130521  8.038074700953 -2.676482204515
H  -7.863907837214  10.360571389820 -2.140364239671
H  -8.016935567534  10.080960440078 -0.414059638152
H  -10.981852943829  11.704749568443 -1.185617872929
H  -9.258539242767  12.047549851070 -1.130164780524
H  -9.092673155769  11.575696455158 -3.595563404375
H  -10.280595422223  12.829313487832 -3.317140862711
H  -10.920586698594  9.845161092592 -3.601109440498
H  -12.102531648520  11.102158036592 -3.372898013197
H  -11.454407043971  12.141559278500 -5.541749618284
H  -10.247965863352  10.889418400866 -5.802096387163
H  -13.125414123944  9.745859930403 -7.623093442992
H  -11.494050387348  10.371319553473 -7.827411274651
H  -13.330645689370  12.021089029795 -8.563730905969
H  -12.254573032082  12.669759254260 -7.361721785761
H  -15.039793731420  11.516083919135 -6.840338941189
H  -13.909743314789  11.884271815179 -5.569850588324
H  -13.854843283220  14.288786960893 -6.255698602765
H  -14.915881792260  13.937546371625 -7.608731789783
H  -14.662643112338  13.867344495098 -4.068567163826
H  -15.559303657750  12.386434035606 -4.405547613303
H  -17.708328096237  13.612826544498 -3.973639847736
H  -16.802167748157  15.038232510986 -3.545264160650
H  -17.454135895231  13.843564713828 -1.482918160433
H  -15.713252869664  13.766707833661 -1.655334240379
H  -17.561786183874  11.521525152571 -2.588690854337
H  -16.783210262868  11.536284084470 -1.009477426531
H  -15.944025640896  9.422723282202 -1.924329582369
H  -16.510653471729  9.791393700915 -3.551026038698
H  -13.569484632204  9.497017537197 -2.762247804054
H  -14.140054567893  9.832201652689 -4.370878985321
H  -14.796024175925  7.304832539125 -2.775261811233
H  -15.366201840304  7.620395677161 -4.388675904093
H  -13.015942540876  7.676400224734 -5.240254601269
H  -12.410355073667  7.397482657427 -3.611066810804
H  -11.354987154704  5.722134739700 -4.801529715941
H  -12.370207479767  5.680211814499 -6.242812067213
H  -12.005508486407  3.402130169375 -4.225685663409
H  -11.308823437263  3.471224946391 -5.831268776082
H  -13.217709295826  2.059303141028 -6.066196452321
H  -13.740441131951  3.596243597877 -6.723934922649
H  -14.795962972234  4.119763870622 -4.468337223736
H  -15.493761425407  2.689725238038 -5.228951579800
H  -15.500450826081  1.427082678093 -2.269345439633
H  -16.154046831282  2.871356768214 -3.024142933093
H  -15.542001989107  3.455849914481 -0.702264528107
H  -13.965203967533  2.735433322366 -0.887168337508
H  -13.353974719166  4.423185826850 -2.601679841730
H  -14.932158368392  5.142890843228 -2.488673737913
H  -13.131564085920  6.365431581057 -1.147151691907
H  -14.529812872927  5.889992100762 -0.193493549016
H  -11.926058147491  3.577273153562 -1.159013139328
H  -11.094814530947  5.098217679124 -0.863370081411
H  -11.479328721846  2.941405382210  1.269365228779
H  -10.497230282667  4.369162292413  1.426147767374
H  -8.970610215010  3.495295337569 -0.394882484535
H  -9.031985482008  2.449085893336  0.999689558761
H  -10.388778944888  1.967917656377 -1.690800060119
H  -10.863773279685  1.092525299821 -0.244880338210
H  -8.027051526651  2.046689108262 -2.099177687312
H  -7.348833285533  1.818170827089 -0.488543235838
H  -7.193629108029 -0.210986974530 -2.774754415611
H  -6.653846232796 -0.517459165566 -1.149486021433
H  -5.045186220066  1.431987943228 -1.331020007244
H  -4.684193484172  0.159807716292 -2.462956799289
H  -5.694949775658  1.410749858356 -4.313471974517
H  -6.341850848814  2.625627187131 -3.216570621817
H  -3.934390302375  2.799188094263 -5.488684815505
H  -5.347790069095  3.713748431248 -4.971009285100
H  -2.490354233879  4.465401040452 -4.186680544353
H  -3.927114643070  5.389770454937 -3.851192544500
H  -4.314745519289  5.610598885059 -6.360335331182
H  -2.785396833699  4.819649573804 -6.633722859442
H  -2.470940013506  7.305101818625 -6.694406045014
H  -1.621420194659  6.630165429476 -5.310886948570
H  -4.010804295563  8.962046592229 -6.259935860525
H  -5.043336179175  7.568138722687 -5.958627515644
H  -4.521275179564  9.758355378352 -3.902874869260
H  -5.665319412606  8.453422026873 -3.739160047498
H  -6.745540481597  10.645190479241 -4.348553340245
H  -5.866069351642  10.652110763060 -5.861257730426
H  -7.021487874888  8.540172882487 -6.546677126762
H  -8.207819650369  9.772690456315 -6.129805189861
H  -9.910560610695  8.457049391457 -5.413354087225
H  -9.587294551460  7.107270926131 -4.343029445306
H  -9.962661199559  6.261352004869 -6.648759734281
H  -8.736320078721  7.324584825933 -7.275553276641
H  -7.847229384579  5.031561156957 -7.041435962885
H  -6.971536325720  6.116362621474 -6.002747097351
H  -9.325480439562  4.519802873074 -4.898052391697
H  -8.013511272937  5.265275367191 -4.007496686779
H  -7.401591280364  1.897730070817 -6.199646021804
H  -8.680871056890  3.022399175479 -6.613905450233
H  -8.614041652385  1.133100569129 -4.203364897995
H  -9.797405314417  2.387780899880 -4.357754400589
H  -9.384672175785  0.138681007408 -6.389756502292
H  -10.632770716242  1.359192136197 -6.498418348011
H  -11.550210616596  0.555437699109 -4.268425130717
H  -11.554486034671 -0.741854265712 -5.467882264948
H  -11.170222903733 -0.444520360721 -2.349272967139
H  -11.604542295990 -1.950724132429 -3.169524671528
H  -10.277898587481 -2.377800442077 -1.024737517881
H  -8.975579774803 -1.423365706974 -1.694452165674
H  -8.961955765871 -3.024626863354 -3.703241603140
H  -10.011028434696 -4.079440431531 -2.781719977604
H  -7.687196965281 -4.811730610719 -2.435519239347
H  -8.200131709530 -4.046991469967 -0.928144533531
H  -4.883626893782 -2.928432017661 -2.016427010720
H  -5.594089686750 -4.513705483187 -1.787336297814
H  -5.795601405711 -2.197867270270  0.205946254039
H  -6.481913970309 -3.771341438375  0.460073047774
H  -4.239609536016 -4.815518266362  0.516330904751
H  -4.338166245282 -3.522310721548  1.686924773822
H  -2.186048465147 -3.340278175796  0.554571965748
H  -2.924472641891 -3.403737473315 -1.029874164059
H  -3.871495365461 -1.346133946797 -0.599750820636
