47
pair_id=pair_90a17c3807fb14954fff start=4 nco_site=2 oh_site=2 attack_angle_deg=105.000000
C  -0.000459126700  0.000735647000  0.522920831700
C  -0.992010663100  0.785756250600  1.378015788600
C  -2.016019424300  1.545821546900  0.531210324300
N  -2.900118248500  0.690267334900 -0.172920072400
C  -3.027304416400 -0.361792352400 -0.706570253900
O  -3.350981806000 -1.330304924500 -1.258230835400
C   0.991685933700 -0.781037848400  1.380304733300
C   2.015050216700 -1.544161560500  0.535524113100
N   2.899661976200 -0.691079752300 -0.170947158200
C   3.028001394800  0.359617411700 -0.706957544600
O   3.352420678500  1.326287571100 -1.261459476700
H   0.543752107700  0.694726014500 -0.123116924700
H  -0.545127995300 -0.695790143500 -0.120004612200
H  -1.519839110600  0.103171708700  2.047840451100
H  -0.453194586000  1.512088430100  1.989342102200
H  -2.639266568200  2.176501823800  1.171880418400
H  -1.502500947100  2.189849824200 -0.192137373200
H   1.520081193200 -0.095964201300  2.047135765000
H   0.453279376600 -1.505025608900  1.994762298100
H   2.637854627800 -2.173717065300  1.177729304000
H   1.501047115700 -2.189637061700 -0.186196264700
C  -1.519371281455  0.097961311713  5.072767632864
C  -0.614494159175  1.167427383534  4.468916316751
C   0.155581539525  0.604039409543  3.275161099636
C   0.967357139476 -0.615810591897  3.711841732552
C   0.062438206043 -1.685247828213  4.315667566107
C  -0.707531758113 -1.121834430344  5.509470385341
C  -1.618089764089 -2.187922006378  6.129684348995
O  -2.289756465147 -1.738887396995  7.282020335507
C   1.066240570515  1.670193002300  2.655214397282
O   1.738421547250  1.221135212140  1.503194236685
H  -2.061892495683  0.502352696721  5.929113474602
H  -2.258040079399 -0.215194973574  4.331372070488
H   0.096086687590  1.517062370806  5.221523856792
H  -1.214429940967  2.024229360876  4.154407697171
H  -0.568024881769  0.287022425760  2.512279248407
H   1.706048488535 -0.302720736051  4.453243385298
H   1.509847675484 -1.020198619491  2.855472916010
H  -0.648211215074 -2.034786381976  3.563079438531
H   0.662317897265 -2.542111841453  4.630103413446
H   0.016180749627 -0.804706432217  6.272205573719
H  -1.026840388289 -3.088034531494  6.357867439864
H  -2.405919647765 -2.465768340681  5.425482562358
H  -1.633844970751 -1.449935189150  7.926452630708
H   1.853775399441  1.948149060959  3.359702664189
H   0.475004684689  2.570242260642  2.426745238396
H   1.082799941830  0.932071192914  0.858507327320
