373
pair_id=pair_7d06ceb5c63af0dd1f38 start=3 nco_site=2 oh_site=1 attack_angle_deg=105.000000
C  -2.446703299700 -1.853063307200  0.000123365600
C  -1.098027931500 -1.205932880900 -0.000066001300
C  -0.977301580500  0.191279927900 -0.000010540500
C   0.267967642200  0.804165982100 -0.000123504100
C   1.417991736400  0.026293504500 -0.000147019000
C   1.317979512900 -1.362983689200 -0.000021543200
C   0.069352399300 -1.955586166900 -0.000065144800
N   2.632038095300  0.666782419400 -0.000316067500
C   3.817430935400  0.550232190400  0.000086689700
O   4.971044958500  0.643019233500  0.000273142600
N  -2.082630512100  1.005769681200  0.000064390200
C  -3.274049916600  1.044002541200  0.000022428200
O  -4.404742005300  1.293651270200  0.000058905200
H  -3.016326284800 -1.552982801300  0.880538512500
H  -2.353428997400 -2.935486979200 -0.000257502200
H  -3.016936278500 -1.552395575500 -0.879688210700
H   0.338560408400  1.879666146500 -0.000123025800
H   2.213426184600 -1.965662440300  0.000120232800
H  -0.000809997700 -3.033428387600  0.000035023700
O  -2.194046177117  2.693975146104  1.844251894880
C  -1.631292836167  3.553719943218  2.805217358155
C  -0.600905757253  4.523532621305  2.228366674448
C  -1.188014387175  5.639631107592  1.347881132915
C  -1.438690967036  5.253195792056 -0.111100731104
O  -2.564391301971  4.408505437502 -0.325275695981
C  -3.802225469746  5.109571037393 -0.308975027631
C  -4.990277170790  4.161367434784 -0.245818824963
C  -5.020460392413  3.203804675757 -1.428859947822
C  -6.207663328350  2.254521002232 -1.398704119236
O  -6.196208199555  1.329030395781 -2.477655037677
C  -6.525437182843  1.927840616648 -3.733042613155
C  -5.551428385552  1.550016840444 -4.839547475444
C  -5.931329858841  2.175023696468 -6.180109283807
C  -5.173948986477  1.587157814940 -7.362546981842
O  -3.790301859491  1.918810243579 -7.389065569575
C  -3.157617653196  1.351424294390 -8.535309460491
C  -1.685197702689  1.714515517099 -8.672094074505
C  -1.011375797753  0.934508166779 -9.795396523924
C   0.494869898696  1.134099209951 -9.844350694262
O   0.863346103598  2.488779180620 -10.077787287446
C   2.216824208812  2.611816247878 -10.505371208786
C   2.709604609852  4.051545818954 -10.475854148996
C   2.829106581967  4.590790319186 -9.054748774582
C   1.492946622633  4.673849607753 -8.336864617699
O   1.633570157033  5.106151776103 -6.988882270621
C   0.395957146904  5.077379717773 -6.287082074352
C   0.577784265083  5.329660821922 -4.799102712185
C  -0.724121030027  5.240806461066 -4.010055810510
C  -1.406877658896  3.895437781729 -4.208277422925
O  -0.501435151765  2.809490007156 -4.091304776787
C  -0.152321296798  2.482170904261 -2.754752313351
C  -1.340158135608  1.942632106866 -1.972647448604
C  -0.971266194554  1.128994317881 -0.739993263437
C  -2.196977749776  0.388343941793 -0.227224210868
O  -2.796996746803 -0.353354905530 -1.282902946263
C  -4.021024496502 -0.976298272260 -0.913250264983
C  -4.652211509007 -1.697092898596 -2.094150621126
C  -5.964204020388 -2.397924338087 -1.756426507325
C  -7.094647756301 -1.431669545717 -1.440253335370
O  -8.334758961723 -2.111244527351 -1.283739963325
C  -9.409974766942 -1.235960174340 -0.965138554078
C  -10.748617160987 -1.935614588545 -1.134937935474
C  -10.865526354757 -3.174820993490 -0.259678024818
C  -12.077093980200 -4.010272335951 -0.645219101245
O  -11.975492225781 -4.429747051222 -2.001092558244
C  -13.179481522036 -4.967203139603 -2.537031439880
C  -13.056701933517 -5.122210702090 -4.045215324415
C  -12.681227229972 -3.792691802118 -4.687369279570
C  -12.318477526585 -3.902779910987 -6.158534280460
O  -11.835699074946 -2.666599466746 -6.666924743613
C  -11.457707686397 -2.721434604239 -8.034372365875
C  -10.371768392292 -3.752646685104 -8.335326255910
C  -9.619091646783 -3.472740818156 -9.633131056733
C  -8.659594934022 -2.304552747759 -9.468331914234
O  -7.612054375993 -2.619177637414 -8.550890041349
C  -7.103341929475 -1.482912440680 -7.859046938406
C  -7.705745107813 -1.329977032728 -6.470425534334
C  -7.447275430295 -2.538894289879 -5.575988819199
C  -5.977473682274 -2.937193377794 -5.541114910863
O  -5.130075886370 -1.843422620930 -5.200827690399
C  -3.786366693415 -2.036098320350 -5.639628940865
C  -2.894865304742 -0.848376755467 -5.305214668214
C  -1.535536465948 -0.907195196118 -5.990467148173
C  -0.633822776911  0.262341530362 -5.605955324083
O   0.351931693990  0.535526906928 -6.598715113150
C   1.439365352980  1.301055801450 -6.095842057493
C   2.506993012644  0.404814590949 -5.494863753128
C   2.973991526948 -0.613456280368 -6.523695109617
C   4.009517987295 -1.590608669566 -5.995723642427
O   4.395887539056 -2.531905024059 -6.992594619528
C   5.484097135561 -3.356143532923 -6.601668046053
C   6.773710235297 -2.574560831580 -6.386205782695
C   7.053214883895 -1.635180713136 -7.553629429747
C   8.173211752106 -0.642747911546 -7.276702443060
O   8.492206832478  0.190841227427 -8.383453193536
C   7.376560028273  0.924741331316 -8.873579700590
C   7.772215321782  1.965591736509 -9.908646141848
C   6.573886261170  2.671339961397 -10.539436454420
C   5.658994083410  1.702729763509 -11.278030100665
O   4.977489149103  0.828211502747 -10.384059933264
C   4.389340555588 -0.287691422860 -11.045837264952
C   3.656879943344 -1.202883145922 -10.077439425757
C   2.993324307246 -2.388172058879 -10.766240550165
C   2.252472473540 -3.292405474241 -9.793886127594
O   1.586103552928 -4.371910506259 -10.448009090391
C   1.106630590896 -5.334490088074 -9.519451249018
C   0.168839501229 -6.369032781530 -10.127525971724
C   0.792540482868 -7.153127560864 -11.276355621163
C   0.848398098508 -6.341677784273 -12.559422737257
O  -0.454140871998 -6.027066500528 -13.048414529506
C  -0.435610464643 -5.113802688357 -14.148412166493
C  -0.889673423819 -3.714886706707 -13.749902651525
C  -0.149526853280 -3.209749554772 -12.525122309541
C  -0.558165351719 -1.806261517256 -12.104985390742
O  -1.960265092261 -1.604485396803 -12.041421284228
C  -2.631491953288 -2.443341247976 -11.107101419724
C  -4.124563455329 -2.145965195677 -11.092859041908
C  -4.948704933027 -3.140813498292 -10.280613309261
C  -4.921945367509 -4.555938271119 -10.850077902459
O  -5.950785818174 -5.399474502589 -10.347141885195
C  -6.022701283974 -5.396884490966 -8.928289430595
C  -6.868571593081 -6.533149594309 -8.372145196524
C  -7.052441168386 -6.430248611598 -6.859518618965
C  -5.752245210685 -6.604788657615 -6.087304011462
O  -5.876689995050 -6.242405639368 -4.716645561360
C  -4.739886879084 -6.644047285874 -3.953285987783
C  -4.527032888985 -5.769808160217 -2.728756094954
C  -3.410311865105 -6.273692917331 -1.824348788895
C  -3.119925011271 -5.293268288527 -0.699798719822
O  -2.729897663005 -4.015497660676 -1.182585589824
C  -1.363745510078 -3.965123852710 -1.583288550854
C  -1.007080087003 -2.630742308962 -2.219720090614
C   0.478088021458 -2.465753462424 -2.518517974071
C   0.951963490419 -3.418763272518 -3.604015537470
O   0.194355065724 -3.265896987391 -4.796670439423
C   0.770220777066 -3.919102509992 -5.916956773620
C   0.808380177467 -5.431886078243 -5.778837994797
C  -0.561777820956 -6.032088351299 -5.478707549108
C  -1.615115489643 -5.723800204205 -6.539847610119
O  -2.725490377076 -6.611470625820 -6.470713236447
C  -2.501561767399 -7.819641072358 -7.192909323874
C  -2.910560291063 -7.700655497663 -8.653811909649
C  -2.493766194699 -8.892882304610 -9.505439447562
C  -3.030325108007 -8.753287339333 -10.920518773186
O  -4.453315805371 -8.706427126234 -10.902941499346
C  -5.021861982207 -8.091494924339 -12.052010421962
C  -6.532201837955 -7.997713393934 -11.907693035977
C  -7.161464016627 -9.374252481468 -11.748970472956
C  -8.582138241494 -9.301836385881 -11.210032655754
O  -8.597982544946 -8.836226302305 -9.866196472222
C  -9.900876739802 -8.820901338440 -9.292161949274
C  -10.691685943970 -7.575037259621 -9.658117543805
C  -12.064665379857 -7.503582266443 -8.994609414884
C  -12.009982563585 -7.585682140721 -7.472013350219
O  -11.139917964659 -6.640552927392 -6.889481023698
H  -2.390356194677  3.232907993621  1.040937714567
H  -1.184594194333  2.910169383882  3.573980667217
H  -2.445134805746  4.101007192266  3.297500706201
H  -0.042590761601  4.974891992785  3.060155325698
H   0.142821119470  3.959055137822  1.655459883464
H  -2.112149138399  6.011684559031  1.800975306332
H  -0.502154561584  6.498448767047  1.361942686442
H  -0.564440797978  4.727428667330 -0.509271434639
H  -1.574731389390  6.140374598105 -0.741313513181
H  -3.806182924946  5.799150336282  0.541825268320
H  -3.844589077025  5.720138979483 -1.217781179852
H  -5.929753771199  4.725966210066 -0.201328343751
H  -4.945346050315  3.585962664985  0.685972683690
H  -4.100263127944  2.612858658607 -1.452182031967
H  -5.014030297023  3.773015629720 -2.364370878908
H  -6.205877529826  1.671327352845 -0.471434816877
H  -7.158137465539  2.799098493017 -1.417830994283
H  -7.541537709014  1.603425261705 -3.986347554178
H  -6.574186306498  3.016417312827 -3.623006643332
H  -5.524436980612  0.458330043140 -4.923871090645
H  -4.534100642878  1.842534185071 -4.556702015656
H  -5.766668156290  3.257829057928 -6.144576220894
H  -7.010356108887  2.049256599614 -6.336833033201
H  -5.609586372726  1.930257089447 -8.308850748817
H  -5.249407634583  0.495324932129 -7.353144427216
H  -3.708946120680  1.670995635848 -9.426727813143
H  -3.274264555468  0.263860133441 -8.468941712965
H  -1.174403104026  1.515189146481 -7.726517866425
H  -1.572825166523  2.792388989957 -8.832948155956
H  -1.448852094713  1.224381330271 -10.757545606846
H  -1.240792527358 -0.130971486172 -9.676896683834
H   0.944125152139  0.521425805248 -10.634600228416
H   0.952600195608  0.827816865769 -8.897394478036
H   2.275722984817  2.192214171121 -11.516554798868
H   2.839297932872  1.985398893704 -9.856130187964
H   3.676186829023  4.130536094906 -10.989824829552
H   2.014251741688  4.676057974280 -11.047666124909
H   3.295770634528  5.583390527628 -9.052256977644
H   3.503793016055  3.952747320630 -8.472384708020
H   0.814336366087  5.363710020036 -8.850557668128
H   1.005216036344  3.693269444941 -8.327180301970
H  -0.058108027276  4.094782164449 -6.455161189289
H  -0.270536250678  5.822951903294 -6.734371751377
H   1.059590763767  6.303855150491 -4.653054518406
H   1.290101953483  4.591765542332 -4.412568781418
H  -0.521811260294  5.398776700602 -2.944412173273
H  -1.400118090205  6.053224759116 -4.304340361952
H  -2.245845918200  3.751537503951 -3.519412925922
H  -1.835172621635  3.826484662587 -5.215287284257
H   0.299436960171  3.353835548935 -2.270780948528
H   0.635072805350  1.722599506201 -2.817800702239
H  -2.006476562837  2.761959882497 -1.687837177657
H  -1.931903669915  1.307844614558 -2.643547276934
H  -0.195843864815  0.401484159678 -1.005144767363
H  -0.533867094841  1.768704531436  0.035824277643
H  -2.944424627447  1.093136513336  0.152286945914
H  -1.950118067626 -0.299941003305  0.589265398940
H  -4.690887574182 -0.204222721368 -0.522381493369
H  -3.812339672989 -1.676776566653 -0.096927757765
H  -4.816862300926 -0.978209283588 -2.904735809395
H  -3.926333329391 -2.418457101575 -2.486224202098
H  -5.820858392924 -3.081335533821 -0.912135296661
H  -6.281637127345 -3.034185170909 -2.590704798355
H  -6.892614628507 -0.869420032824 -0.522683673422
H  -7.210505845245 -0.702166804825 -2.249985073868
H  -9.339871408580 -0.351992478561 -1.610257019069
H  -9.271054668508 -0.899404137419  0.068072227143
H  -11.581950346865 -1.250103197214 -0.937924469017
H  -10.853231799846 -2.239666210317 -2.182927606520
H  -10.894217638552 -2.894619420005  0.800278071594
H  -9.960777237847 -3.780760616488 -0.387993806278
H  -12.175077361616 -4.905262661751 -0.020137693555
H  -12.995797781342 -3.424962603790 -0.530935869130
H  -13.999270341906 -4.284089734936 -2.289717946608
H  -13.381834855044 -5.922146970587 -2.038693976275
H  -13.980805217197 -5.516831726601 -4.484467170278
H  -12.277088867986 -5.860378995087 -4.267158757570
H  -13.487702257899 -3.062454504450 -4.557136189369
H  -11.824618094964 -3.367681771802 -4.151222125032
H  -13.177795523143 -4.219780701722 -6.759158167913
H  -11.532595547387 -4.652321237531 -6.289303840934
H  -11.115241539827 -1.713094821065 -8.288385572660
H  -12.356005069771 -2.898711787393 -8.636513882489
H  -9.654251116726 -3.764190706334 -7.508218862065
H  -10.817422334702 -4.753395473379 -8.352959196670
H  -9.040161531089 -4.353585434767 -9.936688619521
H  -10.332831609787 -3.283666734425 -10.444089558756
H  -8.193465837906 -2.026284362862 -10.420839605292
H  -9.189115454642 -1.418194376646 -9.105022134321
H  -7.262272051728 -0.590376952237 -8.476220675713
H  -6.018362843174 -1.613325266056 -7.791740050666
H  -7.297313935426 -0.433664266544 -5.990884519364
H  -8.784633796156 -1.153202892772 -6.558617548637
H  -8.051661228186 -3.386727193770 -5.917082793668
H  -7.789763022876 -2.324779301282 -4.555884873478
H  -5.791375217981 -3.744192613732 -4.822710656497
H  -5.666299205777 -3.318845421983 -6.519187429338
H  -3.805697966239 -2.196536606113 -6.723125327132
H  -3.403182571727 -2.956930380770 -5.185993511429
H  -3.402251053025  0.072847259424 -5.608587606789
H  -2.772692552479 -0.764135946639 -4.220031843448
H  -1.672103166301 -0.909715460577 -7.077499355712
H  -1.034361909962 -1.853673013374 -5.765686067446
H  -0.142910318826  0.076988223125 -4.644875606875
H  -1.221413634580  1.179817210102 -5.482924632935
H   1.849217763534  1.868224881648 -6.938962402355
H   1.054141226269  2.036050331439 -5.380089376805
H   2.107732610583 -0.117772653354 -4.618945956935
H   3.355435603840  0.996711947275 -5.130214382553
H   2.110316142271 -1.169398601793 -6.905893159996
H   3.385716513185 -0.090256346293 -7.393665159702
H   4.892854227189 -1.043194540937 -5.654474992467
H   3.625187598260 -2.144384268338 -5.133379951262
H   5.614138459404 -4.088250166940 -7.406906855720
H   5.188362258199 -3.918836539736 -5.708582149749
H   7.621448989300 -3.253917278498 -6.232948017108
H   6.707210493347 -1.992855881140 -5.460016277854
H   7.283463682881 -2.211436768038 -8.456750475435
H   6.133159273713 -1.090150401015 -7.788743308509
H   7.923852657832  0.004101372753 -6.428182814440
H   9.093259420002 -1.171190481118 -7.003550833366
H   6.861810999106  1.392884831534 -8.027259506422
H   6.681953749936  0.206878920674 -9.320199217077
H   8.363546973666  1.474084370719 -10.689623737930
H   8.452321361215  2.690243093707 -9.444837995872
H   6.916949972573  3.460685675692 -11.220962305086
H   5.995183478712  3.178102629963 -9.759182107374
H   6.241098551104  1.095681413498 -11.980020441970
H   4.899833016793  2.230741168927 -11.866180820220
H   3.706258129558  0.090415351463 -11.814133290603
H   5.183360273106 -0.836311297396 -11.564186669988
H   2.903787691118 -0.622466046603 -9.535117517898
H   4.352808229318 -1.557927708489 -9.309632087884
H   2.300014527820 -2.023721653747 -11.530658640801
H   3.739956070022 -2.975861581705 -11.312059439718
H   2.948163455594 -3.709652318189 -9.056697568051
H   1.500959328428 -2.723434117356 -9.234905090483
H   0.605272467597 -4.788301338836 -8.713500810385
H   1.983319960099 -5.825144904623 -9.081828361164
H  -0.737798307518 -5.872337775906 -10.490639375130
H  -0.158646679179 -7.058521079528 -9.339295013432
H   0.210807294693 -8.062650525845 -11.471849170957
H   1.795012096495 -7.492810860791 -10.988493879453
H   1.392152441493 -5.407284190897 -12.389994296207
H   1.376012798376 -6.885353275759 -13.352033101495
H  -1.080427013108 -5.533060972101 -14.930256300286
H   0.578381168653 -5.089351150965 -14.563770758565
H  -0.761554794490 -3.012923305276 -14.582992380043
H  -1.965432241074 -3.724937004966 -13.542224840760
H  -0.316270732650 -3.905557571148 -11.695795329848
H   0.929552637718 -3.247268862609 -12.713630987919
H  -0.131536763677 -1.542376564312 -11.131272444764
H  -0.181029748785 -1.069571389468 -12.823788895011
H  -2.452544708081 -3.485275617806 -11.386768175213
H  -2.188380211530 -2.299305852027 -10.115809540560
H  -4.484500128503 -2.135256007215 -12.128064824004
H  -4.279795988261 -1.123495825891 -10.727341634458
H  -4.600013774383 -3.148675407904 -9.241921931425
H  -5.992227525575 -2.809458617309 -10.236821498474
H  -3.960321241460 -5.046078238318 -10.661127150052
H  -5.049144293816 -4.530109922591 -11.938176990910
H  -5.001432172687 -5.436585737467 -8.536432925448
H  -6.448758936690 -4.434774107780 -8.625666442205
H  -6.415582063313 -7.495352382754 -8.635216150669
H  -7.839954621629 -6.526541944872 -8.878849604766
H  -7.481690983520 -5.454434609177 -6.610961009418
H  -7.783070800073 -7.165344417645 -6.501430101327
H  -5.404745673768 -7.642356445233 -6.145171688880
H  -4.956767639170 -5.978741377897 -6.504756293988
H  -4.889234675479 -7.691115686102 -3.667203456115
H  -3.854425112661 -6.612269235756 -4.598528839966
H  -5.464686863152 -5.697989271603 -2.166196212032
H  -4.305578663997 -4.746345507117 -3.050579507931
H  -2.505954787005 -6.437035617964 -2.419912189807
H  -3.673838339994 -7.258984496356 -1.420063699453
H  -2.342339118468 -5.662342490264 -0.020820143269
H  -4.018832926674 -5.137383257162 -0.092475267756
H  -0.748620743184 -4.141783087551 -0.694150058125
H  -1.169987184535 -4.788137308992 -2.276731651810
H  -1.354104454511 -1.831123231271 -1.557089932454
H  -1.580642192501 -2.513484487704 -3.145030287383
H   0.676132981889 -1.437252379121 -2.843738149010
H   1.062244618271 -2.606925265233 -1.600928801373
H   0.855115214811 -4.457569934170 -3.273437409330
H   2.009335690138 -3.254576269160 -3.839870282113
H   1.769925101105 -3.500917602083 -6.081641655275
H   0.169772175507 -3.627842680195 -6.785487042315
H   1.212781117583 -5.880979375146 -6.693952961425
H   1.517846796328 -5.708463717380 -4.989717062064
H  -0.474687484034 -7.119359781508 -5.367116271532
H  -0.923696845672 -5.676206856226 -4.507926340522
H  -1.189071471985 -5.783558516189 -7.545764098338
H  -1.998032783278 -4.702863889902 -6.428731189797
H  -3.068333536061 -8.614847249177 -6.695505631676
H  -1.445122142039 -8.094892563626 -7.105237386539
H  -3.996466549012 -7.572864254613 -8.718541235429
H  -2.500319891659 -6.778989032963 -9.078701921298
H  -2.888890682519 -9.813214561826 -9.060821992407
H  -1.403150821394 -9.004402321875 -9.505349386919
H  -2.655049149800 -7.832706982216 -11.381640281592
H  -2.727474913709 -9.588792594868 -11.562194893281
H  -4.570747008295 -7.099674708114 -12.169178985654
H  -4.745227949519 -8.688502268844 -12.927650724324
H  -6.982713522816 -7.461603431213 -12.751960116873
H  -6.759878694827 -7.398114892228 -11.019386450979
H  -6.554272203213 -9.958661814002 -11.047374673909
H  -7.124220289331 -9.917454951928 -12.701414700047
H  -9.061159749874 -10.287788070770 -11.229200224084
H  -9.192448933766 -8.628346845826 -11.820067789736
H  -9.759419751338 -8.885275466502 -8.207967297324
H  -10.432955393927 -9.732153897110 -9.586183012431
H  -10.100856404202 -6.694606413197 -9.386421963159
H  -10.795422329680 -7.516465263550 -10.747874322435
H  -12.703732621728 -8.305376259991 -9.385020463951
H  -12.559381186744 -6.567324522019 -9.281444382907
H  -13.002998670792 -7.413434969048 -7.037726417451
H  -11.710071866146 -8.587292463697 -7.138551739569
H  -10.208795644879 -6.837504827502 -7.140378631411
