369
pair_id=pair_19e6c3e0a0de52025d7a start=4 nco_site=2 oh_site=2 attack_angle_deg=105.000000
O   6.618264355100  0.143538449800 -1.688772552200
C   5.816657291800  0.056693374400 -0.854090093000
N   5.168305460200 -0.077203069200  0.131054582300
C   3.854011754200 -0.052937900900  0.673130753600
C   3.208913872000  1.324955326500  0.505592565300
C   1.816479531100  1.330099716500  1.127972203900
C   0.915975883400  0.265277561500  0.494741769900
C   1.575300343600 -1.106616265900  0.646848687500
C   2.969563288100 -1.121854323200  0.026592232800
C  -0.471566668400  0.318794788400  1.144508880200
C  -1.531720426600 -0.614503699000  0.548593741600
C  -2.815889084600 -0.520079738200  1.377955627300
C  -3.901240110600 -1.443307734100  0.834788234600
C  -4.215431931400 -1.131031945700 -0.633160601400
C  -2.931460693800 -1.192021334500 -1.468816570500
C  -1.850234206100 -0.273002050300 -0.907919417400
N  -4.855865099800  0.132195613900 -0.765308668800
C  -4.715970678600  1.296887398100 -0.579600605500
O  -4.781695726700  2.452432031500 -0.482541701300
H   3.969545924300 -0.273189232200  1.741047915900
H   3.836149805100  2.083749329600  0.977052012800
H   3.142337409400  1.557949739500 -0.559917029900
H   1.898918572600  1.140301456600  2.200766512800
H   1.366995500400  2.316357678000  0.998420659100
H   0.822792117200  0.492510003800 -0.571700099600
H   1.645879490100 -1.356204628000  1.708123695400
H   0.969045823200 -1.872128855900  0.161264418100
H   2.901208685400 -0.921631752800 -1.045633449400
H   3.428518868200 -2.103936366600  0.155965136700
H  -0.843348377200  1.344547930400  1.077407088700
H  -0.362537387200  0.081373795700  2.206152281500
H  -1.171999744600 -1.647583393000  0.596726238500
H  -2.605958818300 -0.783409642800  2.416616017800
H  -3.176915567100  0.511493151300  1.366280192100
H  -4.810035213800 -1.341777785600  1.430961935200
H  -3.567918939900 -2.481073930500  0.896756635300
H  -4.936516961100 -1.862698729600 -1.016941204600
H  -2.574708747800 -2.223980911300 -1.464940239600
H  -3.156569269900 -0.914536712900 -2.500403691300
H  -0.955847295700 -0.371101252100 -1.524329068000
H  -2.184966647800  0.765627050600 -0.969067221100
O  -1.378951369909 -10.961171339555 -25.030568727079
C  -0.644022190516 -10.655788542295 -26.199664703054
C   0.747360875803 -10.122585258141 -25.888901599150
C   1.627264961386 -9.930979202493 -27.114684225397
C   2.999241435641 -9.403918730399 -26.724492241489
O   3.666494358975 -10.241541377666 -25.789323566056
C   4.179579184674 -11.448724148882 -26.356111131011
C   3.624653938283 -12.703638525760 -25.694921414758
C   3.968099545128 -12.792494243792 -24.208828680302
C   3.265967712408 -11.739781279363 -23.365957600583
O   3.609811505003 -11.827602167760 -21.989611512630
C   2.696342080183 -11.175915123675 -21.114034890173
C   2.635838671583 -9.653149616625 -21.274787183624
C   1.649784912206 -9.155943304122 -22.335057595285
C   0.190298586747 -9.388284420007 -21.967916160975
O  -0.700462565458 -8.932261272151 -22.986525213411
C  -2.022336640262 -8.715543723682 -22.498730242339
C  -2.975890044028 -8.262310669845 -23.592621714143
C  -4.382612264807 -7.984036434357 -23.072391552818
C  -5.283303099584 -7.358787053131 -24.128181066978
O  -6.523871132145 -6.912860098546 -23.589988643426
C  -7.447779229991 -6.532681899169 -24.605540306732
C  -8.696668101409 -5.882645289999 -24.030451552683
C  -9.755889843120 -5.579169075096 -25.083598313642
C  -11.002055852768 -4.956536482443 -24.472085050026
O  -10.719822047320 -3.702316052056 -23.863812370448
C  -11.748521050261 -3.253634283931 -22.990626000791
C  -11.730853042579 -3.980388789119 -21.653743303482
C  -10.343165761704 -3.931438479194 -21.031826463069
C  -10.197916156842 -4.772775599673 -19.774690358368
O  -8.841229366135 -4.844378419102 -19.344290208086
C  -8.674267567028 -5.696641050791 -18.215153654381
C  -7.223199561502 -6.104457123941 -18.012310885184
C  -7.026488549611 -6.999391735449 -16.791698220611
C  -7.105642242788 -6.207264640615 -15.496287406128
O  -6.063228604752 -5.243551723580 -15.418018964484
C  -6.115949984971 -4.468177779494 -14.223404492085
C  -5.000862785765 -3.436198443502 -14.185533335057
C  -4.943074401449 -2.623996676164 -12.892187557344
C  -4.485674934956 -3.426175806753 -11.683894546471
O  -4.500486415319 -2.660489880438 -10.480580844523
C  -3.892061638129 -3.354779315156 -9.393718647930
C  -4.347532805824 -2.827417625337 -8.040537111587
C  -4.011442964862 -1.353959049362 -7.848686147284
C  -2.530111187494 -1.111828884112 -7.590626161162
O  -1.700268962553 -1.674990629651 -8.599990205567
C  -0.322428727179 -1.319813378009 -8.471232186234
C   0.286181667384 -0.906762796701 -9.803102409340
C  -0.410093495227  0.312669453044 -10.403439567194
C  -1.818724352478  0.020775800601 -10.898048375537
O  -2.492115214000  1.198333283114 -11.327380151687
C  -3.761099353477  0.910065181096 -11.902585935529
C  -4.503982357088  2.170767731752 -12.315669259886
C  -5.867696210575  1.893874970644 -12.948426946222
C  -5.777131672931  1.012958515784 -14.187932213019
O  -7.002946446478  0.915619644132 -14.906878993425
C  -7.243478091617  2.027269961206 -15.767375249828
C  -6.857522690284  1.750973464796 -17.215159728419
C  -5.391163497089  1.375157871798 -17.380472551564
C  -4.985015842592  1.131580812625 -18.826855455613
O  -3.619327081841  0.733217202612 -18.958128426335
C  -3.459439616790 -0.650640664007 -19.231126196142
C  -3.833952416936 -1.538051389218 -18.056039528991
C  -2.982543212380 -1.245512546201 -16.818840032924
C  -1.604201403470 -1.889229134561 -16.877934851240
O  -0.822723793422 -1.692478795046 -15.705342733750
C  -1.458812742405 -2.158449863770 -14.520362510243
C  -0.464906416742 -2.647840820961 -13.480486624057
C   0.415853290588 -3.771156342614 -14.009141916024
C  -0.398391403318 -4.962883379317 -14.494671730507
O  -1.341090612948 -5.396324175863 -13.522430093102
C  -2.250772404141 -6.360887464456 -14.043608345963
C  -3.253818946966 -6.821959532211 -12.999833829092
C  -4.338649514910 -7.739499446431 -13.554281482041
C  -3.807690326777 -9.094573151775 -13.996169495544
O  -2.839244325925 -9.020707836330 -15.030236015282
C  -3.389527564961 -8.646292232234 -16.288421038349
C  -2.373830342896 -8.781555500578 -17.412752738177
C  -2.928533148086 -8.388563089640 -18.781466228990
C  -3.233668490932 -6.902787010799 -18.903179945516
O  -3.741081273243 -6.553897629091 -20.188415377923
C  -4.071526484415 -5.170605949101 -20.268393536567
C  -4.731584006176 -4.794212593406 -21.588298933718
C  -5.099513900886 -3.314391640278 -21.668979676656
C  -6.207907237561 -2.922869778699 -20.702725045216
O  -6.426765808705 -1.516011924853 -20.666393408424
C  -7.709305413615 -1.170568490392 -20.162812531274
C  -7.996745095218 -1.744757047753 -18.783345338178
C  -9.344716891019 -1.314161942507 -18.217282429394
C  -9.589078429107 -1.880563405406 -16.828836611697
O  -10.859043393813 -1.501992710383 -16.314854489699
C  -11.187749477224 -2.159616590756 -15.102104962436
C  -10.235683651263 -1.824382990240 -13.965577123619
C  -10.091237263168 -0.324049473390 -13.774218557373
C  -9.131321698523  0.014481470226 -12.646343297132
O  -9.573569986547 -0.519143589481 -11.404100075052
C  -8.774296478417 -0.112870727287 -10.301942381386
C  -7.426004340469 -0.813697969168 -10.237454422198
C  -7.546665312329 -2.314100117773 -9.987296239807
C  -8.345944188486 -3.061831155938 -11.043096329954
O  -8.204673182384 -4.471855310547 -10.906420208365
C  -8.996239043084 -5.204986905646 -11.836936582382
C  -8.573977488160 -6.665181867722 -11.897344664190
C  -9.357185844811 -7.483873938686 -12.915042207625
C  -8.834861639545 -8.909547710806 -12.995897701046
O  -9.003271547669 -9.595093485811 -11.759896346046
C  -8.111097857353 -10.692712513232 -11.597551145204
C  -6.755405090170 -10.270206115089 -11.049926024973
C  -5.823144431761 -11.447025402661 -10.793917666316
C  -4.502316083104 -11.002605811269 -10.185135063442
O  -3.783755430602 -10.133579476853 -11.049494302998
C  -2.597279904213 -9.617855157670 -10.453897930352
C  -2.864271461164 -8.467385702920 -9.493999456538
C  -1.584285985659 -7.790924759727 -9.012105698503
C  -1.851980532909 -6.635816699223 -8.060607262995
O  -0.648608209561 -6.017335906892 -7.619270498337
C  -0.873768949513 -4.821212996596 -6.884306394333
C  -1.355457537596 -5.062684699420 -5.458736583590
C  -1.785290824248 -3.782995824940 -4.742367418414
C  -0.679902116912 -2.744406020280 -4.617821358971
O  -1.169736675006 -1.517291929821 -4.086004803176
C  -0.170809052932 -0.508612798123 -4.024522391540
C  -0.725980983752  0.833040000229 -3.565060076161
C  -1.807880766177  1.367479409045 -4.497781584515
C  -3.127458051763  0.630780695490 -4.315740717103
O  -3.673462044139  0.859735072578 -3.031553621233
H  -1.171355194259 -10.295728280350 -24.333505828088
H  -0.586081738742 -11.574292586946 -26.795055065632
H  -1.218088330757 -9.935558603227 -26.795441917842
H   0.660058820481 -9.176917116045 -25.341916824595
H   1.240789120723 -10.809698755822 -25.196015826753
H   1.139237884826 -9.249352692722 -27.822549247933
H   1.729328663560 -10.884410239063 -27.644858525480
H   3.652607702369 -9.262671528010 -27.593353319868
H   2.903251645001 -8.422824964746 -26.245388400235
H   5.269190616665 -11.409686124002 -26.241354773260
H   3.984136717678 -11.450208100777 -27.435054826875
H   3.998910761457 -13.592516177983 -26.219755589683
H   2.536456346859 -12.726356830365 -25.817432325526
H   3.712945328003 -13.783002829183 -23.812435317790
H   5.050668700598 -12.696339725126 -24.069718230051
H   2.180065929869 -11.847131338954 -23.456179982206
H   3.541200641381 -10.737763032344 -23.710740772027
H   1.711704971559 -11.636846237896 -21.239741762286
H   3.028883601605 -11.442610059889 -20.102808447189
H   3.647916123802 -9.294301223517 -21.497736627487
H   2.369353581372 -9.189744996903 -20.316112591437
H   1.852597137628 -9.622752830420 -23.300721422158
H   1.792712755915 -8.082684487761 -22.512053715354
H  -0.017460531671 -10.450526125019 -21.803180061701
H  -0.049572846038 -8.868879054751 -21.033592878427
H  -1.967078714094 -7.954539867724 -21.712644558047
H  -2.375181145618 -9.642488542471 -22.033479932653
H  -3.013466413573 -9.011297472295 -24.391239658185
H  -2.567929490556 -7.361038888071 -24.064226312060
H  -4.329097341216 -7.322221191652 -22.202608422473
H  -4.840276947218 -8.904226082572 -22.692032019950
H  -4.793908222701 -6.492534968672 -24.587141061390
H  -5.486830407595 -8.074156472829 -24.932793535297
H  -6.942171805117 -5.851006985870 -25.298492969910
H  -7.708836292635 -7.433175005580 -25.172376770188
H  -8.415496699396 -4.961457736576 -23.508776155128
H  -9.115524179735 -6.535426310393 -23.256331116673
H  -9.341195334181 -4.895339344949 -25.832648250209
H  -10.012797754988 -6.497265361578 -25.626209242711
H  -11.423710344235 -5.627284797777 -23.717168891833
H  -11.780678262753 -4.789716470218 -25.225896902766
H  -12.712530467139 -3.349022153409 -23.503748935452
H  -11.575101257877 -2.181800395058 -22.840222263457
H  -12.470355087876 -3.552168833508 -20.965801517319
H  -12.031571720497 -5.024809144739 -21.789404008074
H  -9.606431048697 -4.271520589332 -21.766460805200
H  -10.068254362722 -2.894810762993 -20.818646301625
H  -10.803295035264 -4.369493530542 -18.955439578660
H  -10.545960526083 -5.794366419524 -19.962851831636
H  -9.297625766872 -6.586702516125 -18.355453375577
H  -9.066207887089 -5.171623270033 -17.338579451121
H  -6.867719105170 -6.601313262424 -18.923690999678
H  -6.606519378749 -5.204961340495 -17.908143575011
H  -6.047726944185 -7.489553268890 -16.840665624357
H  -7.767070030114 -7.808448624868 -16.798915286645
H  -8.059868938148 -5.676180520824 -15.420633885871
H  -7.029773249751 -6.863037372023 -14.622452604396
H  -7.094816213955 -3.980001817510 -14.173129321378
H  -6.050220623676 -5.151101603073 -13.370978834694
H  -5.124418748080 -2.773164315643 -15.049748201625
H  -4.046273146807 -3.947472054915 -14.343461063609
H  -4.264966169813 -1.772996292275 -13.011259653055
H  -5.924477709011 -2.186203440848 -12.687216904222
H  -5.133150496070 -4.295378224701 -11.526629220167
H  -3.465860534366 -3.797488505003 -11.834818257492
H  -2.808396805515 -3.243743908167 -9.512216637532
H  -4.123931423510 -4.421686899861 -9.494520590050
H  -5.430388744403 -2.978116419114 -7.953341094619
H  -3.904551333935 -3.417244738306 -7.229956207117
H  -4.316173398152 -0.808711035032 -8.749026833629
H  -4.603563324841 -0.928608143015 -7.027459729485
H  -2.223719132683 -1.550097541087 -6.636189496541
H  -2.318023402026 -0.037705039819 -7.534946870812
H  -0.229724984755 -0.505813962244 -7.743490600022
H   0.199690851555 -2.183614307298 -8.044386767291
H   0.216453072712 -1.745773953970 -10.504159696013
H   1.358763323340 -0.709303094862 -9.676737482538
H   0.174346670121  0.724598336899 -11.235480301976
H  -0.455814146419  1.114826959715 -9.658340946733
H  -2.423715819102 -0.434412350619 -10.108500294415
H  -1.798155689165 -0.691872258390 -11.728951352373
H  -4.345733437221  0.329910759998 -11.179999764882
H  -3.584793018720  0.268808434443 -12.771237708554
H  -3.876135158966  2.731632090904 -13.017469625614
H  -4.609582354545  2.822982849566 -11.440551203089
H  -6.531192888816  1.422870476581 -12.216060729512
H  -6.358834949639  2.838290960373 -13.209278456181
H  -5.487766450063 -0.007636464474 -13.919291813276
H  -4.997664617894  1.384707154717 -14.858843546367
H  -8.310787343830  2.266555815139 -15.685828728636
H  -6.701349913554  2.897608223493 -15.382659943688
H  -7.480207109481  0.937429080110 -17.600779600258
H  -7.088780855764  2.620126854468 -17.843206248153
H  -4.751670001803  2.159661578694 -16.960606467492
H  -5.180013523026  0.479722308903 -16.788968172478
H  -5.622032145983  0.373743706830 -19.294607444990
H  -5.111987033940  2.045161907398 -19.419002586942
H  -4.050978006170 -0.881256736091 -20.124766571941
H  -2.408832180969 -0.796832995673 -19.504389391897
H  -4.896302930571 -1.398140378804 -17.828725432814
H  -3.737500986488 -2.596758326223 -18.326162317978
H  -3.501318755978 -1.588591503963 -15.918061878268
H  -2.869680370671 -0.163003554101 -16.691727675994
H  -1.023922775985 -1.487715000433 -17.715764183276
H  -1.685629364816 -2.968467285629 -17.048426508717
H  -2.074043137387 -1.338227865429 -14.132787330456
H  -2.139144697959 -2.970667801835 -14.793115704903
H   0.156696867014 -1.805529518522 -13.153164422676
H  -1.001535880089 -2.997332548440 -12.589274900239
H   1.046118498752 -3.392581904887 -14.823515633727
H   1.104245778984 -4.102321070908 -13.221645692437
H  -0.949688523935 -4.706061349204 -15.405537604771
H   0.245045087991 -5.814898547318 -14.744532454536
H  -1.670247780745 -7.208706341102 -14.424544817442
H  -2.766853829982 -5.910352859943 -14.898259083161
H  -2.717037174675 -7.319714650088 -12.186643016202
H  -3.707907043374 -5.937103406109 -12.541626025784
H  -5.124995829086 -7.879776676531 -12.801810964084
H  -4.826386173568 -7.244435041821 -14.399226189275
H  -4.614084969948 -9.757509233386 -14.331584543178
H  -3.321519634377 -9.604053804039 -13.157097922710
H  -4.263250640493 -9.277104704918 -16.485059227247
H  -3.745625360523 -7.615231685497 -16.211714949759
H  -1.495268528400 -8.170468166139 -17.177192081868
H  -2.008423298279 -9.815578434962 -17.428596736913
H  -3.838407152793 -8.960406555042 -18.995370978670
H  -2.220381283261 -8.668331791534 -19.569112466005
H  -2.331783956170 -6.307792026677 -18.721282490727
H  -3.973359696192 -6.596670023841 -18.156139641050
H  -4.730414450452 -4.938005950604 -19.426436120573
H  -3.151063489350 -4.594946308119 -20.120312243548
H  -5.627941045118 -5.408304749748 -21.733787988563
H  -4.055044493230 -5.061040901624 -22.408762405036
H  -5.406644187405 -3.044490935352 -22.686740400727
H  -4.212083767900 -2.705879124451 -21.465982022450
H  -5.963982747452 -3.237793943404 -19.683637100144
H  -7.145201925045 -3.421510691722 -20.975698103667
H  -8.452780977251 -1.497895419681 -20.896190061478
H  -7.765015190684 -0.076654211729 -20.144434192718
H  -7.196660030869 -1.453730148290 -18.094624189204
H  -7.957735642880 -2.838519784378 -18.820154214469
H  -9.414511257743 -0.221531613809 -18.182226722742
H  -10.155635883435 -1.628754989488 -18.882767976149
H  -8.813569278010 -1.532826825383 -16.138240172331
H  -9.538398588587 -2.974017654928 -16.845676177648
H  -12.206697392350 -1.843645348321 -14.850520569432
H  -11.231793410786 -3.237949782310 -15.295786886308
H  -9.251093997133 -2.264656851290 -14.158296478091
H  -10.579335299621 -2.282913062078 -13.030380432605
H  -11.073539915438  0.110569835557 -13.557037210755
H  -9.762502438442  0.139236495666 -14.712754533969
H  -8.139044216671 -0.393307396061 -12.863033424607
H  -9.022557177056  1.099523610979 -12.535000365062
H  -9.354662832207 -0.329893273739 -9.398062477963
H  -8.665390522938  0.977299734468 -10.345655271402
H  -6.806057848925 -0.355875186373 -9.455311416161
H  -6.880294998428 -0.645000230315 -11.170456809547
H  -7.993444853154 -2.498892961090 -9.003768393558
H  -6.550038891996 -2.765750777710 -9.940289879848
H  -9.409949966106 -2.808684429555 -10.978738001787
H  -8.008565777295 -2.787883098297 -12.047192289928
H  -8.901047074923 -4.737768575586 -12.822710330887
H  -10.045960611502 -5.110344406654 -11.538228375984
H  -8.671880738416 -7.116332024054 -10.903322117851
H  -7.503146646479 -6.716491487732 -12.123062118896
H  -10.416531826821 -7.500701471279 -12.635291073391
H  -9.318746392027 -7.000442965190 -13.898084192865
H  -9.355322844876 -9.488744430426 -13.767864025437
H  -7.771323023858 -8.910068441633 -13.257197639333
H  -8.595900545468 -11.394939767162 -10.909839906507
H  -8.012841387619 -11.215003577700 -12.555720478331
H  -6.275269077137 -9.563895349264 -11.734111839587
H  -6.906062634221 -9.706087671400 -10.122475460096
H  -5.629439215704 -11.971755979333 -11.736352120097
H  -6.318404608553 -12.177173428144 -10.141900451372
H  -3.857531096763 -11.861478446172 -9.964366973332
H  -4.679892149618 -10.479009022141 -9.240465241473
H  -2.065898672939 -10.437221662532 -9.957307039006
H  -1.946317203704 -9.287768712748 -11.270930465674
H  -3.440678767518 -8.821940121659 -8.632929689925
H  -3.511864704393 -7.731885190313 -9.984405770566
H  -0.934004427758 -8.522296013675 -8.519249664374
H  -1.006037290966 -7.424442607346 -9.868020576143
H  -2.406344035382 -6.984762532020 -7.183811741845
H  -2.470100359008 -5.876682767657 -8.550954327067
H  -1.580976561283 -4.200563980904 -7.444417007895
H   0.076960947235 -4.277506567380 -6.882026556099
H  -0.562092005448 -5.563816195040 -4.892747257581
H  -2.189301967164 -5.773050261240 -5.472762253395
H  -2.171981597909 -4.010430180219 -3.741624594545
H  -2.630085143659 -3.332352627486 -5.273324360724
H  -0.235904407092 -2.529129240631 -5.594500143820
H   0.126853701105 -3.106104457725 -3.970968816907
H   0.272067003291 -0.413054644438 -5.022082870401
H   0.619263704264 -0.864025678068 -3.352495019682
H  -1.151456692508  0.721498584646 -2.561069766350
H   0.091661505408  1.559817023224 -3.470402751305
H  -1.981683848179  2.432959679643 -4.302697760973
H  -1.464667296927  1.302692612110 -5.537386332237
H  -2.974702909332 -0.448621874715 -4.439509277961
H  -3.862063235752  0.945580587295 -5.068831459065
H  -4.491986103374  0.328707850217 -2.894113194114
