383
pair_id=pair_1eed3bf4b6fc24a22592 start=4 nco_site=2 oh_site=2 attack_angle_deg=105.000000
O   6.071138798300  2.480874245000 -0.539966886600
C   5.281563264000  1.703290642200 -0.203729312400
N   4.583194840700  0.895553337000  0.323028101100
C   3.469566272400  0.097992287700  0.217823463600
C   3.141003666300 -0.720825069600  1.291776942100
C   2.027239290200 -1.535897111400  1.217504870200
C   1.230376574900 -1.552900220000  0.080976745700
C   0.000129982500 -2.417918638600 -0.002577497200
C  -1.230253681400 -1.553071685200 -0.084299228600
C  -2.021435998300 -1.526209840700 -1.224619472200
C  -3.134787785500 -0.710465627800 -1.297435226200
C  -3.468763238200  0.098981255200 -0.218056518800
N  -4.581846364100  0.897438299100 -0.321975352000
C  -5.282652338400  1.701065266500  0.207899688400
O  -6.073694902800  2.476057311700  0.546553031600
C  -2.680498724400  0.084975519400  0.931153113200
C  -1.572915706700 -0.735626567500  0.987803746500
C   1.567638803400 -0.726117648500 -0.985674162700
C   2.675451036000  0.094047662700 -0.927432521900
H   3.761402694000 -0.710428411900  2.174324307200
H   1.779230559000 -2.170944736200  2.055913696000
H   0.058433977900 -3.056457871800 -0.886664495400
H  -0.057740878700 -3.058561817600  0.879976911700
H  -1.769229849800 -2.154027086400 -2.067217719300
H  -3.750781892300 -0.692421148900 -2.182945547900
H  -2.943609239700  0.716629811900  1.766859046600
H  -0.960209384700 -0.742612630800  1.877475508100
H   0.950329509800 -0.725172817000 -1.872181069100
H   2.934211927200  0.733133578500 -1.758835180200
O  -11.520238455502  4.446160985111 -10.802888276884
C  -12.158393351729  4.999355372505 -11.928073309979
C  -13.422045047182  4.247878053355 -12.344555129083
C  -14.616816147446  4.417173845482 -11.390884265519
C  -14.622369033854  3.479132507117 -10.182229354764
O  -13.684135436095  3.805514958533 -9.162540104957
C  -14.115370887633  4.871226420173 -8.324514341680
C  -12.989548063406  5.390649503431 -7.442886159670
C  -12.418880420711  4.302192598814 -6.544541141823
C  -11.301576049038  4.798591949916 -5.640816458536
O  -10.739052723551  3.762746218535 -4.846215743666
C  -11.600089104808  3.338623297978 -3.787112600849
C  -11.735332839387  1.824934045886 -3.708049754377
C  -12.636070131203  1.386117396253 -2.555584162413
C  -12.555919385548 -0.103696678306 -2.253258392030
O  -13.126278182863 -0.932250641148 -3.259918768680
C  -13.032537082969 -2.308122298400 -2.893475094081
C  -13.679918753402 -3.259193361359 -3.890935160089
C  -13.386926924887 -4.717265076268 -3.555616682220
C  -13.861533155246 -5.685993344137 -4.626748636050
O  -15.270030272667 -5.640133292760 -4.825388776639
C  -15.752536435556 -6.786122651340 -5.520921165385
C  -17.188862727233 -6.618740777206 -5.995763360589
C  -17.314188926592 -5.568365508775 -7.093766537626
C  -16.946325715155 -4.171411905355 -6.623897159386
O  -16.995580957730 -3.219370983244 -7.679789462098
C  -16.544849955720 -1.935660643865 -7.262696381283
C  -16.392281468879 -0.976699538644 -8.432271472566
C  -15.848537808681  0.388370116069 -8.024380337953
C  -14.514606701534  0.265509642597 -7.302578141588
O  -13.622929035192 -0.616938863253 -7.965138989083
C  -12.998022921602 -0.062038766631 -9.112731686139
C  -12.052600173609  1.073703628144 -8.752160570713
C  -11.002953732407  1.385287424653 -9.809838188077
C  -9.937898410641  2.299425437471 -9.223431543695
O  -9.431058467737  1.746558158923 -8.014279521049
C  -8.517813083941  2.602586284576 -7.338895043858
C  -8.060608563506  1.993482464326 -6.022679198376
C  -7.067179800881  2.860916194970 -5.256386401808
C  -7.682283545574  4.143605157047 -4.719848194092
O  -6.773400897419  4.848878271288 -3.882760050993
C  -7.312169183947  6.066423299327 -3.381729690117
C  -6.459305119367  6.612048438068 -2.248050862716
C  -5.022619707951  6.866864549375 -2.679772952592
C  -4.126251361907  7.138634595151 -1.480947774059
O  -4.135182794864  6.024433752446 -0.595989302565
C  -3.563499603777  6.288824394655  0.680316176003
C  -3.868556748076  5.145847386781  1.636487969949
C  -5.370826052006  4.904999232063  1.714862489685
C  -5.751108059789  3.642037732488  2.468750441580
O  -7.146906272998  3.388590918331  2.383956293714
C  -7.552482469805  2.203201859480  3.051906972650
C  -6.863836434143  0.938859564177  2.541572819369
C  -7.632620659815 -0.338572135178  2.867618746292
C  -8.859358547868 -0.480665567478  1.980274575466
O  -8.492035611399 -0.666821805030  0.613362234607
C  -9.457250356068 -0.166630789415 -0.306802573573
C  -9.097373561521  1.214592633026 -0.833356257609
C  -7.751733436791  1.242579787992 -1.552226148540
C  -7.633007060120  0.156824020106 -2.613929492882
O  -8.719492522765  0.182255328952 -3.535404111889
C  -8.906181372955 -1.068992179622 -4.194761225516
C  -10.090776291163 -1.045807911828 -5.150526634457
C  -10.476380815593 -2.428312188076 -5.661209059380
C  -11.631462379137 -2.384370974261 -6.657506618214
O  -12.349408726160 -3.614738265620 -6.709115695040
C  -13.124110022371 -3.748445696573 -7.893762471811
C  -12.302811683629 -4.351958656269 -9.018703890577
C  -11.721187292567 -5.687863631787 -8.582208639814
C  -10.838654223795 -6.345638305392 -9.628326975972
O  -10.305812068138 -7.581093310163 -9.160564032978
C  -9.615745323332 -8.315207647315 -10.161202258796
C  -10.523882681474 -8.770587409482 -11.296241140922
C  -11.790792107366 -9.428228863124 -10.761559878627
C  -12.849249677939 -9.660006625306 -11.830180974565
O  -14.006462125245 -10.338207706642 -11.358557626256
C  -14.634709619554 -9.682113206169 -10.263867606440
C  -15.980558359982 -10.294857142087 -9.911006086898
C  -16.607316853568 -9.687275889243 -8.658014337211
C  -15.739678103143 -9.893261909592 -7.422892179353
O  -14.538772819890 -9.129974020004 -7.483157611860
C  -13.569795666507 -9.550469731961 -6.527451602350
C  -12.300210283088 -8.716870359078 -6.599102514047
C  -11.259934101976 -9.128220624773 -5.565526535086
C  -9.998021298597 -8.282771812696 -5.634555622291
O  -9.046970421608 -8.634096646522 -4.629902152937
C  -7.789911951531 -8.011095852837 -4.854284530366
C  -6.818947198564 -8.136203631778 -3.687639308810
C  -6.520287408792 -9.579385549211 -3.298222585912
C  -7.659127011358 -10.207968298930 -2.513518741179
O  -7.858454226648 -9.565248794451 -1.255790112961
C  -9.034345340159 -10.012773131075 -0.576532411279
C  -10.155874827656 -8.981958792548 -0.615805000845
C  -10.417300054067 -8.487143548480 -2.026436809465
C  -11.545211913539 -7.470547214083 -2.113762948442
O  -11.463191891425 -6.428779527654 -1.155310819050
C  -10.286252448043 -5.633527839016 -1.253119538226
C  -10.291784569441 -4.532721261188 -0.201410383631
C  -8.974993065632 -3.769029424746 -0.094124013908
C  -7.809419956024 -4.635485576059  0.373077424373
O  -6.685948098059 -3.892848378460  0.830583338316
C  -6.272000180137 -2.893859201816 -0.090822422737
C  -4.890939152686 -2.333936721500  0.217477153144
C  -4.524498440723 -1.164556320510 -0.693953852748
C  -4.376104300806 -1.569774987355 -2.153771021919
O  -4.305082174751 -0.449328820705 -3.028453128947
C  -3.915803752474 -0.826786506941 -4.348431606159
C  -4.429310469022  0.140447352558 -5.401922869275
C  -3.900037248157 -0.162942890101 -6.797180009452
C  -4.555979561702  0.720819235366 -7.845451931419
O  -5.966858242776  0.559944290280 -7.883437072913
C  -6.375606742668 -0.600463007674 -8.601665208776
C  -7.877420987812 -0.823362393304 -8.513919724094
C  -8.386660392435 -1.956833646960 -9.396044404025
C  -7.883832881119 -3.313717806965 -8.930082507992
O  -8.229609290353 -3.558141220192 -7.573446885824
C  -8.037401670092 -4.907172030799 -7.177830473638
C  -6.580791883063 -5.339539354177 -7.197666987448
C  -5.682257194289 -4.425371370401 -6.370269680125
C  -6.083416029322 -4.333695980531 -4.900151566856
O  -5.026951563320 -3.841946735943 -4.083000269850
C  -4.135348391931 -4.873506935600 -3.667892599398
C  -4.588618973257 -5.540649902713 -2.377489652251
C  -3.783749786410 -6.781914440078 -2.014392583077
C  -4.220295743733 -7.326718016385 -0.664411690628
O  -4.001715741593 -6.353006171584  0.351223770978
C  -4.804365638847 -6.541421267619  1.509670425367
C  -4.578111650182 -5.409232327098  2.498460746304
C  -3.123047067943 -5.338895610848  2.938759972842
C  -2.780730415079 -4.009096081815  3.593332991433
O  -2.834187054608 -2.944763770468  2.651378322267
C  -2.449472437293 -1.688646525914  3.200421036634
C  -3.583250761428 -0.996402684496  3.939897319688
C  -3.213252852370  0.384789649866  4.474528657487
C  -2.713004789215  1.341096151473  3.395983745961
O  -3.594784828696  1.464620321378  2.301985899044
H  -12.220453881731  4.216643951409 -10.146138554744
H  -11.414849785678  5.004648717629 -12.735420181082
H  -12.386317685261  6.051081864828 -11.713301657493
H  -13.711633023017  4.582664521602 -13.350224111338
H  -13.188159017895  3.183111998621 -12.452059834409
H  -14.670928627727  5.458152136335 -11.057448849608
H  -15.545585852705  4.253975462970 -11.955616345694
H  -14.398890182049  2.457366155606 -10.506782990412
H  -15.612155003484  3.440450914928 -9.711497106178
H  -14.522006806738  5.671383710296 -8.952042791118
H  -14.940898791919  4.492313305514 -7.711778639903
H  -13.338320751687  6.231737594269 -6.831088890924
H  -12.191056081575  5.794859994004 -8.075633585232
H  -12.035792970618  3.479406194080 -7.155106992569
H  -13.221899857374  3.859284241941 -5.946030381540
H  -10.489223068084  5.225898899732 -6.238677467329
H  -11.647593118612  5.597775272736 -4.976053515545
H  -11.182656308347  3.737685664399 -2.855249905437
H  -12.584851596682  3.804174585782 -3.901079474095
H  -10.736392257226  1.390048760941 -3.595748491343
H  -12.114558543667  1.434308554446 -4.658903727232
H  -13.675227603194  1.657918583005 -2.772654171719
H  -12.366808023691  1.957310272314 -1.657857054458
H  -13.069069972448 -0.334461593817 -1.311763892425
H  -11.511642538140 -0.407713361644 -2.131024264977
H  -13.486981904106 -2.432946214381 -1.904225633467
H  -11.968625519116 -2.545180753447 -2.780769925197
H  -13.315945089465 -3.031433450090 -4.896124238876
H  -14.760793975238 -3.085775482981 -3.935069502458
H  -13.854137822156 -4.974993871148 -2.598311785730
H  -12.308564548119 -4.837109205906 -3.398476274499
H  -13.590731308717 -6.716381475408 -4.368562717263
H  -13.386860458527 -5.457329697202 -5.587191628673
H  -15.655623367888 -7.641100664693 -4.841474570367
H  -15.090934710696 -6.972136780045 -6.374775979425
H  -17.584392330846 -7.579798493285 -6.348766065415
H  -17.813460328991 -6.333022511000 -5.142098972526
H  -18.332505374811 -5.549347739355 -7.500837362589
H  -16.670109827766 -5.837738206808 -7.938780751933
H  -17.618956915577 -3.836326580628 -5.826661364808
H  -15.932049263603 -4.164293827705 -6.210732568367
H  -15.585306909807 -2.070660545061 -6.751838384578
H  -17.253249318376 -1.545764697087 -6.523567920397
H  -17.355200076204 -0.877681275822 -8.947543542633
H  -15.716680573659 -1.435231815003 -9.163439028189
H  -15.730951878053  1.019701208430 -8.912679162578
H  -16.574652819756  0.909136431325 -7.387859836179
H  -14.031356103736  1.237394187999 -7.157600159012
H  -14.658406069879 -0.146850184011 -6.296824153960
H  -13.762902768611  0.249441819208 -9.831099086407
H  -12.443421419957 -0.878778926352 -9.588405908755
H  -12.622343439520  1.978172703853 -8.520377390011
H  -11.538525406760  0.808346071608 -7.820207235672
H  -10.533824642107  0.451733944583 -10.140370994717
H  -11.463884455018  1.825200526625 -10.702283883046
H  -10.358194590659  3.283465179506 -8.990075530013
H  -9.102479863445  2.454831711886 -9.915714644830
H  -9.012276264243  3.564845692548 -7.174096406605
H  -7.664048857382  2.779245668445 -8.002581520901
H  -8.938044453735  1.797454719617 -5.396076242358
H  -7.624375825249  1.009903044880 -6.230668769256
H  -6.209699930176  3.105402092631 -5.893082088108
H  -6.647841899566  2.303194521182 -4.410978718635
H  -7.987363849632  4.809430887485 -5.533775763820
H  -8.578310767293  3.919202021323 -4.129897954928
H  -8.340501714035  5.879586722422 -3.049893129442
H  -7.360458659198  6.777159806781 -4.213964645957
H  -6.897776500843  7.524615997978 -1.825975432820
H  -6.452032001974  5.879328465668 -1.432733436314
H  -4.979895129982  7.688389494083 -3.405110400633
H  -4.652466892590  5.979081111289 -3.206105728867
H  -3.088188524077  7.326955229652 -1.778094330299
H  -4.478443672908  8.019489478000 -0.933480820379
H  -3.987866499093  7.225280807131  1.058236435404
H  -2.486122333565  6.441879554370  0.549789722499
H  -3.454549730174  5.335998240648  2.634022760264
H  -3.377868643195  4.234926778703  1.274001173274
H  -5.875254777964  5.769743127007  2.160259835820
H  -5.773674470962  4.834671658114  0.697693039173
H  -5.467787523760  3.706645334333  3.524790832076
H  -5.224928134008  2.784257635446  2.039948209548
H  -8.636046672896  2.138224984290  2.909704607797
H  -7.394081211467  2.338853399728  4.127754311104
H  -6.747772362114  1.011778852180  1.455164583605
H  -5.845957599684  0.893035883599  2.944362296488
H  -6.994464312645 -1.217785140386  2.716174104808
H  -7.911918795124 -0.344570561699  3.928177092837
H  -9.476544083508 -1.336779142175  2.277145071847
H  -9.494667133709  0.407524512812  2.054561330744
H  -10.444227408627 -0.179586060283  0.171203977210
H  -9.511822471058 -0.886257569485 -1.130135144010
H  -9.878872153983  1.560062211735 -1.518967592555
H  -9.093490027533  1.931488033406 -0.003251666093
H  -6.941031812674  1.136179044998 -0.822918474389
H  -7.601291252000  2.224306237777 -2.018418561945
H  -6.702702168021  0.247752391044 -3.186860480877
H  -7.608096750205 -0.831241741470 -2.142528160349
H  -9.059656069772 -1.834798948791 -3.426604945562
H  -7.979667615646 -1.324069521015 -4.721121050043
H  -10.952448575138 -0.607350612376 -4.637296476907
H  -9.883708187357 -0.372433105933 -5.989176519456
H  -10.758306185914 -3.066369216164 -4.816403075688
H  -9.612150471823 -2.923614890847 -6.114313764623
H  -11.272635991019 -2.128389552101 -7.659874937513
H  -12.353859289199 -1.608213598928 -6.378430243466
H  -13.972000569599 -4.398474320881 -7.650747889142
H  -13.542849185536 -2.770153598052 -8.155522992188
H  -11.489488299543 -3.672288252978 -9.294913046906
H  -12.910056918811 -4.476614891420 -9.923624064863
H  -11.150023237024 -5.552957511081 -7.656652404453
H  -12.535653951918 -6.371638636166 -8.319150989208
H  -11.416991123164 -6.523863786209 -10.539456983627
H  -10.002530391136 -5.695287557321 -9.903925859075
H  -9.178951756176 -9.182752638804 -9.653385877113
H  -8.778530775459 -7.706138232435 -10.521467722683
H  -9.994236997662 -9.456103943201 -11.969454815277
H  -10.796198570003 -7.913956614000 -11.922865111902
H  -11.546702804032 -10.376523626830 -10.269756435639
H  -12.204146731781 -8.793789220814 -9.970697565904
H  -13.171862751892 -8.712262759794 -12.275469515344
H  -12.440696969352 -10.263487574828 -12.648255842950
H  -14.741638497826 -8.618330403474 -10.503273401194
H  -13.960033442149 -9.756269696409 -9.405621612785
H  -15.846925736210 -11.373526948174 -9.770320657559
H  -16.654113706590 -10.197302206352 -10.770999133502
H  -17.606347502236 -10.111292198915 -8.492530851513
H  -16.757804709226 -8.612453241714 -8.808386676484
H  -15.473139851074 -10.951040952076 -7.321874322954
H  -16.266511579579 -9.607909189095 -6.505252189355
H  -14.020487821157 -9.485870109427 -5.531184275235
H  -13.344437185789 -10.606910154105 -6.709891657916
H  -12.556101996481 -7.661096942991 -6.464912625486
H  -11.873696019583 -8.782726663099 -7.605904112657
H  -11.694814459031 -9.058730306882 -4.563584552680
H  -10.997019717325 -10.184440395971 -5.692144250638
H  -9.521606428874 -8.389515820001 -6.615964014566
H  -10.238687063075 -7.220670136372 -5.512161868205
H  -7.984220541776 -6.957488884041 -5.080988641899
H  -7.362326339072 -8.463103760780 -5.756337514522
H  -7.225613773998 -7.612377875245 -2.815413270553
H  -5.886416360098 -7.618109589028 -3.944376826951
H  -5.614215753806 -9.623703634088 -2.681024629461
H  -6.300192611959 -10.165511434547 -4.198896327987
H  -8.589145954051 -10.147635259180 -3.087008810876
H  -7.468147196588 -11.269274593904 -2.315157556326
H  -8.745115993111 -10.245974832853  0.455363654371
H  -9.359079363937 -10.957324580467 -1.027830586919
H  -11.076798440500 -9.393374372946 -0.184710561767
H  -9.892554492666 -8.130667243105  0.021731832217
H  -9.496246354845 -8.050525115757 -2.427385663512
H  -10.630986389968 -9.343511531034 -2.676304331720
H  -11.594101025249 -7.015017233646 -3.108683253476
H  -12.511436342886 -7.959578882871 -1.943820416435
H  -9.417205371903 -6.283889881367 -1.120269114640
H  -10.220293235437 -5.216759594603 -2.263914974202
H  -10.530979692826 -4.983129543115  0.768763919893
H  -11.122394131759 -3.847059487815 -0.409014367456
H  -8.735451143015 -3.307866810338 -1.058735760939
H  -9.085527474105 -2.936218637831  0.609339928839
H  -7.468395070840 -5.310368232068 -0.419952185657
H  -8.120034754981 -5.271127703618  1.209907054030
H  -6.308172106669 -3.323786767220 -1.096790706286
H  -7.014617192322 -2.090118949106 -0.054992751212
H  -4.141868289614 -3.129129884751  0.135010661147
H  -4.865294425691 -2.025037941669  1.268334849652
H  -5.294809170219 -0.390379423384 -0.619651979587
H  -3.598304842490 -0.681475667548 -0.360470134171
H  -3.478637977393 -2.182249805572 -2.295476016683
H  -5.228251175578 -2.171753416814 -2.486116994805
H  -2.821633793514 -0.881565988116 -4.365505660164
H  -4.289512339156 -1.837399439326 -4.549414480295
H  -4.167190146314  1.164602118299 -5.113432831076
H  -5.524475137207  0.115534767629 -5.410967086502
H  -4.079342264335 -1.217275261157 -7.032703446893
H  -2.809747804731 -0.042213444836 -6.816813216304
H  -4.156297660874  0.536523461280 -8.849522118357
H  -4.367296894637  1.776941342863 -7.621437860401
H  -6.067912281926 -0.472411568692 -9.645255727684
H  -5.832983115880 -1.465526446739 -8.210536562104
H  -8.379022840389  0.115280218026 -8.771292871954
H  -8.147000326789 -1.022898112199 -7.471598121788
H  -9.483294924648 -1.966787585016 -9.386141436203
H  -8.098680163675 -1.777411848418 -10.439123261739
H  -6.794299184393 -3.370886453234 -9.016273210318
H  -8.296950361039 -4.120758773396 -9.545419511322
H  -8.658976722510 -5.544323834447 -7.817432299988
H  -8.449789411014 -4.993343174708 -6.166778286903
H  -6.491372074435 -6.369713344116 -6.832419181001
H  -6.224545197075 -5.374216818428 -8.234216886112
H  -4.642661157051 -4.767554662585 -6.436202804387
H  -5.675788147026 -3.416946594299 -6.798160783446
H  -6.390280465941 -5.310529796411 -4.514687618092
H  -6.943672096720 -3.667491063527 -4.768189536120
H  -3.142630834684 -4.425950846096 -3.544608647900
H  -4.042599876323 -5.608334688602 -4.474701325392
H  -4.530678013212 -4.819545669884 -1.555075876215
H  -5.651434014221 -5.793770832976 -2.445693485126
H  -2.719320063877 -6.525194149849 -1.970762726907
H  -3.876238747563 -7.544071633702 -2.796978565013
H  -5.286056418883 -7.581208512305 -0.682357582198
H  -3.670950947238 -8.233793918123 -0.386978602543
H  -5.853149825909 -6.592463573360  1.196003491645
H  -4.541327254580 -7.509014007940  1.950425679262
H  -5.241276360270 -5.498034451291  3.367649059756
H  -4.848854737219 -4.464863212925  2.013374300016
H  -2.483343682961 -5.465809534764  2.057212885825
H  -2.889146170406 -6.180939228470  3.601978595174
H  -1.771176224559 -4.028868263816  4.020344845279
H  -3.477706585401 -3.789370670489  4.408290124035
H  -2.106259665150 -1.077829982630  2.358553888710
H  -1.578774928891 -1.832552689656  3.849354138223
H  -4.441916795651 -0.916702865281  3.265807496722
H  -3.929413320004 -1.637949237011  4.758647133130
H  -2.453635427806  0.283626654419  5.259671161499
H  -4.086672043471  0.830860316682  4.966216026941
H  -2.571876118894  2.349320227672  3.805766771334
H  -1.729523249171  1.034246001173  3.017865567396
H  -3.649310283968  0.612234499938  1.812911445569
