154
pair_id=pair_d0f7348c2ab6da21546e start=3 nco_site=2 oh_site=1 attack_angle_deg=105.000000
C   0.284581330700 -2.856296821600 -1.075228802200
C   0.162525852300 -1.597457455400 -0.204947230400
C   0.845005092100 -1.904537770700  1.131145514700
C  -1.328669048700 -1.291252660800 -0.005722197300
C  -1.570475083400  0.087872243400  0.610820554000
C  -0.957110448900  1.181183157800 -0.269036073900
C   0.549683356000  0.994266183800 -0.497159448500
C   1.002261202900  1.956948628000 -1.604047402300
C   1.307902346100  1.391971275300  0.789954740500
N   2.703572888200  1.171113099200  0.732383851000
C   3.569168631800  0.422084370500  0.420855653800
O   4.549802891200 -0.154504117100  0.185714036600
C   0.831914196600 -0.441038993400 -0.968894226600
N  -2.963431143600  0.322177330700  0.785377568700
C  -4.013442667400  0.395831636900  0.235484889300
O  -5.116375984200  0.510373170000 -0.104212560000
H  -0.200973184600 -3.701335647600 -0.592771820900
H  -0.180392270100 -2.708228461400 -2.047427195000
H   1.331183276900 -3.106678504200 -1.231501354200
H   0.669336818000 -1.138529666000  1.878580217000
H   1.919144116400 -2.004976794700  0.992809095200
H   0.466878515000 -2.844074041600  1.529162011100
H  -1.834031280800 -1.321260360500 -0.974603031900
H  -1.780892848400 -2.056062502900  0.628522771700
H  -1.151102782700  0.129873374500  1.620567689400
H  -1.463600897200  1.156635133100 -1.237165534300
H  -1.148305840500  2.158375955300  0.179489575800
H   0.772454559600  2.985326617500 -1.333946347600
H   2.075584442100  1.874781849200 -1.759270064200
H   0.502011787900  1.732699420800 -2.543044673500
H   0.909588571900  0.871441133300  1.663883790100
H   1.176321145700  2.466024633200  0.954683369000
H   0.487257832900 -0.500634134700 -2.004285460000
H   1.911225245100 -0.607683746400 -0.987976068100
O  -4.058905159450  0.799083693748  2.904814569288
C  -4.082830575440  1.011302003257  4.309595084579
C  -3.027907120115  0.146917448911  4.987230520017
C  -3.130474919319 -1.349225148893  4.667469727969
C  -4.492891810607 -1.967009706969  4.964061589600
O  -4.853870535217 -1.694746405009  6.316889029371
C  -6.112832224995 -2.274782738795  6.654400693060
C  -6.419015980190 -1.942882984791  8.109937399285
C  -7.778544300161 -2.496919855210  8.537658339599
C  -8.100467560692 -2.169675958854  9.992267905952
O  -7.166826330332 -2.835889432519  10.838667452522
C  -7.410599406483 -2.561748356747  12.216788128856
C  -6.368869258371 -3.281638137440  13.066955316078
C  -6.438787955531 -4.803800661132  12.900970918923
C  -5.400675536873 -5.522634015964  13.761423055489
O  -5.539432929860 -5.219074093868  15.148905585521
C  -6.575470275201 -5.961554507777  15.790342521433
C  -6.600291670231 -5.558327395895  17.261184189293
C  -7.722356216694 -6.220582750730  18.055670390496
C  -7.560213553323 -7.730656728591  18.198534029881
O  -8.632351214946 -8.210453045098  19.009607543425
C  -8.640939953568 -9.628528414523  19.160821106306
C  -7.545909781939 -10.143217871974  20.094848082626
C  -7.569230692037 -9.446901917617  21.459576640373
C  -6.538242960955 -10.030090680591  22.421804020959
O  -5.231978057079 -9.849442685560  21.878281696963
C  -4.196347443998 -10.343720333657  22.726437296841
C  -3.797390760704 -9.294703187331  23.760880458949
C  -2.630588315638 -9.772189763978  24.618333441417
C  -2.215296620794 -8.720605892958  25.639755072892
O  -1.138989362593 -9.252414172929  26.409704065920
C  -0.678831772166 -8.327434575131  27.390029058839
C   0.451294883433 -8.964793871805  28.193635803819
C   0.089160324352 -10.296704344221  28.857302602929
C  -1.072116467537 -10.190211411009  29.843308533004
O  -1.291778072434 -11.441749278174  30.495035590569
C  -0.502545099344 -11.637540803026  31.666944585967
C  -1.159451528102 -11.013852159596  32.897898836329
C  -2.557277345134 -11.586575782884  33.157916988663
C  -3.217187241365 -10.959483432661  34.385062132017
O  -2.425404430903 -11.098088968889  35.563444097410
C  -2.514649233205 -12.390189145547  36.157768793083
C  -1.682084872858 -12.407915948075  37.437948790328
C  -2.220726914870 -11.431091763367  38.490385255175
C  -1.474101984814 -11.528438332761  39.816835889023
O  -0.143676624683 -11.045384309392  39.701214566809
H  -4.701534322424  1.416407237852  2.515365636916
H  -3.876620192994  2.068903508670  4.503934533481
H  -5.086102463407  0.785212046625  4.683144975145
H  -3.078151814110  0.302726711707  6.071144544937
H  -2.034834237529  0.484136575791  4.664704254746
H  -2.371146637877 -1.866035716397  5.267746958454
H  -2.876898455449 -1.526554967500  3.615854064216
H  -5.255892289216 -1.564085585927  4.288928307238
H  -4.438215857494 -3.051204653917  4.811459153325
H  -6.889847057597 -1.863284749128  5.999938011996
H  -6.065957963738 -3.360962240169  6.515259934873
H  -6.394296822619 -0.854620402016  8.247755062471
H  -5.619608717086 -2.343876760617  8.745099854733
H  -7.777514199730 -3.585442262253  8.403170148248
H  -8.563438800532 -2.082113481964  7.894761740669
H  -8.051123792807 -1.087603484680  10.159952621427
H  -9.112617548277 -2.517857694206  10.227616612578
H  -7.338328889145 -1.482154490659  12.391182262448
H  -8.418730843914 -2.896194345674  12.487502046662
H  -5.367833672877 -2.941194697978  12.775371173516
H  -6.520481828750 -3.008603942185  14.117277034150
H  -6.271183828244 -5.076068925510  11.852502739514
H  -7.446266113965 -5.144131550155  13.164030186809
H  -5.446639887644 -6.606392691330  13.602916249717
H  -4.397812343886 -5.197904827551  13.462875082387
H  -6.365584292992 -7.030992935863  15.686373865253
H  -7.541431178536 -5.737467453332  15.327058091776
H  -5.628528983696 -5.780002878532  17.719816161631
H  -6.713180447389 -4.468516874384  17.325965386769
H  -8.694029445159 -5.996848294732  17.597769513192
H  -7.761117908805 -5.774211262998  19.057618501892
H  -6.599870604834 -7.956025284813  18.672723947952
H  -7.603824908967 -8.219323220912  17.219900179796
H  -8.571912830116 -10.111458655609  18.179100495498
H  -9.618809140637 -9.894397817457  19.577452275278
H  -7.674789426300 -11.224137272263  20.226343229510
H  -6.565647932600 -9.995925177504  19.628388921140
H  -8.566596732563 -9.537222038681  21.904996344112
H  -7.361414209544 -8.379034802164  21.322375623243
H  -6.618045563330 -9.517524015301  23.385819968444
H  -6.728099525105 -11.098667875556  22.574918914714
H  -4.497291290495 -11.286470484442  23.198374696444
H  -3.337973031286 -10.561350430041  22.081522151397
H  -4.652997247745 -9.053334460488  24.401648731669
H  -3.534941050401 -8.362018878807  23.246225053689
H  -1.769640358852 -10.021520522423  23.985477801301
H  -2.898305119450 -10.699796187494  25.139763565181
H  -3.055147621770 -8.481842591379  26.302284317995
H  -1.887353300676 -7.806111594020  25.132414126099
H  -0.304528145559 -7.425766934332  26.891567056083
H  -1.505166228721 -8.037577403302  28.048303630288
H   0.796980850714 -8.255503166462  28.954607616822
H   1.297032224647 -9.151456899245  27.520066925198
H   0.978345768839 -10.681801541852  29.370117515655
H  -0.151657577454 -11.050377054894  28.097286427635
H  -0.907361880425 -9.389322360605  30.572085357229
H  -1.995275241041 -9.957733062578  29.303114649564
H   0.510563847200 -11.244127307675  31.530132404823
H  -0.410802419836 -12.719104989867  31.814967633450
H  -1.241871144287 -9.928971351417  32.768107090038
H  -0.513061095490 -11.189880141306  33.765296470569
H  -2.478112030068 -12.671476087070  33.288424944517
H  -3.203345004465 -11.414098905314  32.289434676221
H  -3.345703959565 -9.884999655630  34.213702681614
H  -4.216984288138 -11.378843643911  34.547116110947
H  -2.122350087305 -13.144350311776  35.468190131977
H  -3.560687901084 -12.627108613728  36.383210317979
H  -0.647868275816 -12.141496239274  37.191401415640
H  -1.677248080803 -13.425071232780  37.846188035964
H  -3.281811644714 -11.641743942566  38.668169528923
H  -2.143446101529 -10.406677125169  38.107478133526
H  -1.445328462075 -12.558201572738  40.187489535793
H  -1.979815266149 -10.915466023334  40.569478356735
H   0.326157229376 -11.606772055600  39.062875848808
