46
pair_id=pair_607a6a8329ad6b63c6a5 start=1 nco_site=1 oh_site=1 attack_angle_deg=105.000000
O  -0.892359844500  1.922011143500  1.551618387200
C  -1.404048441200  1.265858264700  0.741439727900
N  -2.097646827800  0.724591544800 -0.055434653500
C  -2.188583977800 -0.380267317600 -0.939051686600
C  -1.948006681800 -1.723900442000 -0.237227573400
C  -0.600190088900 -1.812992178400  0.478380570900
C   0.590144176500 -1.814376315600 -0.479165993500
C   1.938255299900 -1.732525388000  0.236759994800
C   2.184943254300 -0.390931150000  0.940312561300
N   2.100561577500  0.715338087100  0.057787667700
C   1.411701532000  1.258791172400 -0.741747682600
O   0.904946916700  1.916913100500 -1.553406737200
H  -1.481714308000 -0.239304900100 -1.763952380200
H  -3.200357203700 -0.362292705500 -1.353096596100
H  -2.021952472600 -2.511158111200 -0.989744811800
H  -2.743023821800 -1.878381459700  0.495345010200
H  -0.520339529300 -0.972662132800  1.170725239600
H  -0.579098842200 -2.728618728900  1.073920219300
H   0.513845165600 -0.972072399900 -1.169506146300
H   0.565199503500 -2.728466370800 -1.076911659400
H   2.008388233900 -2.521130983500  0.988226084900
H   2.732711129400 -1.889708449300 -0.495850937800
H   1.477836651300 -0.247147674100  1.764520080100
H   3.196296960900 -0.378477551100  1.355590495500
C   2.743675812727  2.674657211439 -0.219791687404
C   3.576605525661  1.776520645466 -1.135482242489
C   2.975876973703  0.385984384293 -1.361324351816
C   1.568335478124  0.408716477675 -1.967122451364
O   0.547805746059  0.703005069592 -1.037172515518
C   2.765035029622  2.233886424063  1.246692200216
C   1.531656836636  2.728474270122  2.006888991706
O   0.378509232231  1.979830216693  1.709686388398
H   1.718362208395  2.686748854088 -0.591042866234
H   3.123123436316  3.696926324795 -0.285971327237
H   3.677043687673  2.267305360337 -2.106445783101
H   4.579758225836  1.662252050238 -0.717314310196
H   3.628841943917 -0.163830043650 -2.042206841812
H   2.944305253392 -0.170012593960 -0.420952489184
H   1.498263335177  1.185007950280 -2.732799833294
H   1.363492256287 -0.561000589499 -2.442673923522
H   0.549038149378  0.025239615761 -0.350599272960
H   2.781904115296  1.145277410182  1.319048685102
H   3.665660094425  2.611168305089  1.733679750240
H   1.680732208451  2.616493298454  3.084087841433
H   1.365974715337  3.794967443029  1.790662794653
H   0.277632233260  1.935035829713  0.748132981186
