67
pair_id=pair_3ea150d80d5c55174de7 start=3 nco_site=2 oh_site=1 attack_angle_deg=105.000000
O   6.618264355100  0.143538449800 -1.688772552200
C   5.816657291800  0.056693374400 -0.854090093000
N   5.168305460200 -0.077203069200  0.131054582300
C   3.854011754200 -0.052937900900  0.673130753600
C   3.208913872000  1.324955326500  0.505592565300
C   1.816479531100  1.330099716500  1.127972203900
C   0.915975883400  0.265277561500  0.494741769900
C   1.575300343600 -1.106616265900  0.646848687500
C   2.969563288100 -1.121854323200  0.026592232800
C  -0.471566668400  0.318794788400  1.144508880200
C  -1.531720426600 -0.614503699000  0.548593741600
C  -2.815889084600 -0.520079738200  1.377955627300
C  -3.901240110600 -1.443307734100  0.834788234600
C  -4.215431931400 -1.131031945700 -0.633160601400
C  -2.931460693800 -1.192021334500 -1.468816570500
C  -1.850234206100 -0.273002050300 -0.907919417400
N  -4.855865099800  0.132195613900 -0.765308668800
C  -4.715970678600  1.296887398100 -0.579600605500
O  -4.781695726700  2.452432031500 -0.482541701300
H   3.969545924300 -0.273189232200  1.741047915900
H   3.836149805100  2.083749329600  0.977052012800
H   3.142337409400  1.557949739500 -0.559917029900
H   1.898918572600  1.140301456600  2.200766512800
H   1.366995500400  2.316357678000  0.998420659100
H   0.822792117200  0.492510003800 -0.571700099600
H   1.645879490100 -1.356204628000  1.708123695400
H   0.969045823200 -1.872128855900  0.161264418100
H   2.901208685400 -0.921631752800 -1.045633449400
H   3.428518868200 -2.103936366600  0.155965136700
H  -0.843348377200  1.344547930400  1.077407088700
H  -0.362537387200  0.081373795700  2.206152281500
H  -1.171999744600 -1.647583393000  0.596726238500
H  -2.605958818300 -0.783409642800  2.416616017800
H  -3.176915567100  0.511493151300  1.366280192100
H  -4.810035213800 -1.341777785600  1.430961935200
H  -3.567918939900 -2.481073930500  0.896756635300
H  -4.936516961100 -1.862698729600 -1.016941204600
H  -2.574708747800 -2.223980911300 -1.464940239600
H  -3.156569269900 -0.914536712900 -2.500403691300
H  -0.955847295700 -0.371101252100 -1.524329068000
H  -2.184966647800  0.765627050600 -0.969067221100
C  -7.659429354100 -2.264941297969 -2.417146721088
C  -8.031500584822 -3.702686455136 -2.068365185618
C  -9.413126791397 -4.046774767545 -2.623510543090
C  -10.450081677385 -3.065691768577 -2.075875318315
C  -10.077976027746 -1.627970646265 -2.424695151090
C  -8.696393126242 -1.283910675282 -1.869442959337
C  -8.311213050151  0.160707777744 -2.208615182393
O  -7.079330011770  0.550011267808 -1.650445462758
C  -9.798229078690 -5.491346158031 -2.284059524617
O  -11.030362050099 -5.880625499354 -2.841679960038
H  -6.675435780120 -2.021181636859 -2.012761094735
H  -7.607057115519 -2.155406808804 -3.502791771872
H  -8.039404463856 -3.828582813652 -0.983157597620
H  -7.284788823619 -4.386949719262 -2.477209377812
H  -9.383237372952 -3.948947482093 -3.716959757625
H  -10.502502298206 -3.175175192165 -0.990227108177
H  -11.434061132481 -3.309456516394 -2.480296371347
H  -10.069963247392 -1.502124191822 -3.509908104995
H  -10.824710944681 -0.943675656217 -2.015954629923
H  -8.726366979912 -1.381931805086 -0.776013329753
H  -9.112021575044  0.840899155215 -1.880147068743
H  -8.188126500817  0.273668540310 -3.288367114503
H  -7.126286164415  0.437001503970 -0.694396215593
H  -9.920916557604 -5.604171367747 -1.204248129004
H  -8.997589054468 -6.171629317658 -2.612749456063
H  -10.983788264663 -5.767732487519 -3.797768323214
