46
pair_id=pair_607a6a8329ad6b63c6a5 start=3 nco_site=2 oh_site=1 attack_angle_deg=105.000000
O  -0.892359844500  1.922011143500  1.551618387200
C  -1.404048441200  1.265858264700  0.741439727900
N  -2.097646827800  0.724591544800 -0.055434653500
C  -2.188583977800 -0.380267317600 -0.939051686600
C  -1.948006681800 -1.723900442000 -0.237227573400
C  -0.600190088900 -1.812992178400  0.478380570900
C   0.590144176500 -1.814376315600 -0.479165993500
C   1.938255299900 -1.732525388000  0.236759994800
C   2.184943254300 -0.390931150000  0.940312561300
N   2.100561577500  0.715338087100  0.057787667700
C   1.411701532000  1.258791172400 -0.741747682600
O   0.904946916700  1.916913100500 -1.553406737200
H  -1.481714308000 -0.239304900100 -1.763952380200
H  -3.200357203700 -0.362292705500 -1.353096596100
H  -2.021952472600 -2.511158111200 -0.989744811800
H  -2.743023821800 -1.878381459700  0.495345010200
H  -0.520339529300 -0.972662132800  1.170725239600
H  -0.579098842200 -2.728618728900  1.073920219300
H   0.513845165600 -0.972072399900 -1.169506146300
H   0.565199503500 -2.728466370800 -1.076911659400
H   2.008388233900 -2.521130983500  0.988226084900
H   2.732711129400 -1.889708449300 -0.495850937800
H   1.477836651300 -0.247147674100  1.764520080100
H   3.196296960900 -0.378477551100  1.355590495500
C   2.849596896489  4.806587704275  1.594465809767
C   4.353254147236  4.886213120982  1.862019646946
C   5.114270007519  3.596934676806  1.539395254040
C   4.973196371040  3.140630058073  0.083179105497
O   3.750402992901  2.494524916237 -0.200048881492
C   2.102810938891  3.909215658599  2.585598616697
C   0.794420959905  3.376454056606  1.995667430433
O   1.002720688397  2.332744017894  1.075978742945
H   2.700773277688  4.443637663878  0.576939185300
H   2.427506992794  5.812993269417  1.643274984576
H   4.772482735944  5.691741779997  1.254484769057
H   4.522362407104  5.140907584721  2.911195608312
H   6.174329794937  3.764244137931  1.740742998005
H   4.782505924881  2.787516693548  2.194531709468
H   5.010927079527  4.001492988974 -0.588603461032
H   5.808809533443  2.472359018448 -0.169062046957
H   3.681495564495  1.705759139104  0.351177625269
H   2.715183613600  3.048604348960  2.859345750110
H   1.887739239694  4.465468239130  3.499355274586
H   0.170250998810  2.948050937663  2.784339221293
H   0.237474326891  4.200770843265  1.524579004898
H   1.659689573387  2.619514635599  0.425654087160
