60
pair_id=pair_3bc7f7b5c70bdd45dac4 start=4 nco_site=2 oh_site=2 attack_angle_deg=105.000000
O   6.618264355100  0.143538449800 -1.688772552200
C   5.816657291800  0.056693374400 -0.854090093000
N   5.168305460200 -0.077203069200  0.131054582300
C   3.854011754200 -0.052937900900  0.673130753600
C   3.208913872000  1.324955326500  0.505592565300
C   1.816479531100  1.330099716500  1.127972203900
C   0.915975883400  0.265277561500  0.494741769900
C   1.575300343600 -1.106616265900  0.646848687500
C   2.969563288100 -1.121854323200  0.026592232800
C  -0.471566668400  0.318794788400  1.144508880200
C  -1.531720426600 -0.614503699000  0.548593741600
C  -2.815889084600 -0.520079738200  1.377955627300
C  -3.901240110600 -1.443307734100  0.834788234600
C  -4.215431931400 -1.131031945700 -0.633160601400
C  -2.931460693800 -1.192021334500 -1.468816570500
C  -1.850234206100 -0.273002050300 -0.907919417400
N  -4.855865099800  0.132195613900 -0.765308668800
C  -4.715970678600  1.296887398100 -0.579600605500
O  -4.781695726700  2.452432031500 -0.482541701300
H   3.969545924300 -0.273189232200  1.741047915900
H   3.836149805100  2.083749329600  0.977052012800
H   3.142337409400  1.557949739500 -0.559917029900
H   1.898918572600  1.140301456600  2.200766512800
H   1.366995500400  2.316357678000  0.998420659100
H   0.822792117200  0.492510003800 -0.571700099600
H   1.645879490100 -1.356204628000  1.708123695400
H   0.969045823200 -1.872128855900  0.161264418100
H   2.901208685400 -0.921631752800 -1.045633449400
H   3.428518868200 -2.103936366600  0.155965136700
H  -0.843348377200  1.344547930400  1.077407088700
H  -0.362537387200  0.081373795700  2.206152281500
H  -1.171999744600 -1.647583393000  0.596726238500
H  -2.605958818300 -0.783409642800  2.416616017800
H  -3.176915567100  0.511493151300  1.366280192100
H  -4.810035213800 -1.341777785600  1.430961935200
H  -3.567918939900 -2.481073930500  0.896756635300
H  -4.936516961100 -1.862698729600 -1.016941204600
H  -2.574708747800 -2.223980911300 -1.464940239600
H  -3.156569269900 -0.914536712900 -2.500403691300
H  -0.955847295700 -0.371101252100 -1.524329068000
H  -2.184966647800  0.765627050600 -0.969067221100
C  -4.115778740855 -1.682130123386 -4.516323483681
C  -3.960688487723 -0.319659620887 -5.198073874568
C  -3.238146017315 -0.481152129865 -6.535500526984
C  -5.355576780766  0.292831051324 -5.445244805577
O  -6.117947547529  0.446980468208 -4.278794909970
C  -3.128612728442  0.631264882938 -4.313024947784
O  -3.673462044139  0.859735072578 -3.031553621233
H  -4.533865886078 -2.400196828868 -5.217392839659
H  -4.798759867173 -1.611356190238 -3.671702539432
H  -3.152708489588 -2.057420506831 -4.173688451649
H  -3.815831056799 -1.115738728704 -7.202846038560
H  -3.097963246817  0.484280088716 -7.016430366154
H  -2.261579931891 -0.936517983286 -6.386903868800
H  -5.935201405238 -0.365784361023 -6.098174917140
H  -5.232720342704  1.260967454518 -5.955878111221
H  -5.573433006329  0.936799688426 -3.642658015838
H  -2.105476071013  0.239246414262 -4.224249126207
H  -3.074019840974  1.617359151212 -4.782292397980
H  -3.687399054471  0.022060888649 -2.554451136299
