357
pair_id=pair_86897ffb45df49ff7132 start=3 nco_site=2 oh_site=1 attack_angle_deg=105.000000
O   6.071138798300  2.480874245000 -0.539966886600
C   5.281563264000  1.703290642200 -0.203729312400
N   4.583194840700  0.895553337000  0.323028101100
C   3.469566272400  0.097992287700  0.217823463600
C   3.141003666300 -0.720825069600  1.291776942100
C   2.027239290200 -1.535897111400  1.217504870200
C   1.230376574900 -1.552900220000  0.080976745700
C   0.000129982500 -2.417918638600 -0.002577497200
C  -1.230253681400 -1.553071685200 -0.084299228600
C  -2.021435998300 -1.526209840700 -1.224619472200
C  -3.134787785500 -0.710465627800 -1.297435226200
C  -3.468763238200  0.098981255200 -0.218056518800
N  -4.581846364100  0.897438299100 -0.321975352000
C  -5.282652338400  1.701065266500  0.207899688400
O  -6.073694902800  2.476057311700  0.546553031600
C  -2.680498724400  0.084975519400  0.931153113200
C  -1.572915706700 -0.735626567500  0.987803746500
C   1.567638803400 -0.726117648500 -0.985674162700
C   2.675451036000  0.094047662700 -0.927432521900
H   3.761402694000 -0.710428411900  2.174324307200
H   1.779230559000 -2.170944736200  2.055913696000
H   0.058433977900 -3.056457871800 -0.886664495400
H  -0.057740878700 -3.058561817600  0.879976911700
H  -1.769229849800 -2.154027086400 -2.067217719300
H  -3.750781892300 -0.692421148900 -2.182945547900
H  -2.943609239700  0.716629811900  1.766859046600
H  -0.960209384700 -0.742612630800  1.877475508100
H   0.950329509800 -0.725172817000 -1.872181069100
H   2.934211927200  0.733133578500 -1.758835180200
O  -6.015817857567  1.002179444985 -2.294904125324
C  -6.399853182633  0.636099976388 -3.605883775967
C  -6.718110287851  1.843180945119 -4.476799521676
C  -6.981762522890  1.504205478100 -5.935932914794
C  -7.284752209601  2.758022599983 -6.741229038018
O  -6.249362254860  3.729029920789 -6.660662053558
C  -5.085584348587  3.399272290282 -7.421369168854
C  -3.820973248127  3.318676261327 -6.576273311588
C  -3.479270501266  4.641468544803 -5.892327665755
C  -4.473217529472  5.032715904559 -4.810375651280
O  -4.148339478538  6.272971055607 -4.196787003822
C  -4.767891053308  6.482088075040 -2.932594481424
C  -6.294582150350  6.604258675692 -2.983637505537
C  -7.050359389502  5.275553466530 -2.899776243065
C  -6.937714350433  4.593933455545 -1.542727674695
O  -7.635985026087  3.348932072243 -1.505760629090
C  -7.931307849120  2.927998463300 -0.176151353281
C  -8.644970717115  1.586140996324 -0.138912983621
C  -9.005910634734  1.147853047612  1.276915193527
C  -9.877004744886 -0.100188603927  1.298347740483
O  -10.380900109361 -0.389573559024  2.598292657175
C  -11.008025534079 -1.667102736175  2.662477706745
C  -11.708138526760 -1.896056018826  3.993049115310
C  -12.280959818985 -3.301146437178  4.137143857304
C  -12.948565351166 -3.505919572869  5.488780035022
O  -14.060634657428 -2.636811218034  5.663917087886
C  -14.494352052758 -2.539393907484  7.014617088791
C  -13.584979375367 -1.651938796544  7.851996557938
C  -13.382822835119 -0.301499238938  7.180953777467
C  -12.357617017559  0.584556244343  7.868845844537
O  -12.068238553025  1.748429064429  7.099020887730
C  -11.048276397061  2.549314440194  7.688458762264
C  -10.450451127730  3.538187175745  6.699624521641
C  -9.371900185393  4.419018856700  7.324413984259
C  -9.972369269954  5.495313236939  8.214833607441
O  -10.787630835290  6.387172029951  7.465546478501
C  -11.383141179441  7.400749550540  8.271223879532
C  -12.262924952040  8.320315691462  7.440432893650
C  -12.867589499833  9.484731405095  8.224187536026
C  -11.851835881851  10.537061343544  8.640749557607
O  -12.432186299106  11.579223050869  9.422766534394
C  -11.522542289046  12.654508888411  9.645916944621
C  -11.897975205853  13.489260808655  10.862018898989
C  -13.279426945665  14.117882614774  10.730607087272
C  -13.308851372065  15.287737230786  9.755855740246
O  -12.805290902729  14.941341731603  8.470926926677
C  -12.976453271227  15.969375199589  7.493673707623
C  -13.504414343878  15.420840932816  6.176379909631
C  -14.870007935082  14.755408523290  6.333136628463
C  -14.817446075706  13.443135486065  7.100767657239
O  -16.114539306997  12.913618653466  7.348928339764
C  -16.061039674739  11.628744579998  7.957629697843
C  -17.445528755607  11.083268531614  8.269927275075
C  -17.422472940088  9.697515138453  8.914848454506
C  -16.725352329993  8.654228784448  8.051039748328
O  -16.875259515362  7.323094096181  8.535384114976
C  -18.119828701726  6.727124177820  8.174907896883
C  -18.012828684217  5.823647964317  6.952752853494
C  -17.497866658559  6.549680512036  5.717250597452
C  -17.420484417960  5.665993023573  4.480554346261
O  -16.890084159550  6.350393089522  3.344198739299
C  -15.551071941856  5.988355200305  3.042322561970
C  -14.552526815364  6.477555781468  4.077782232724
C  -14.562866223931  8.001604009108  4.213094086622
C  -13.779459602520  8.703132772093  3.112266740441
O  -13.713081658945  10.116710515591  3.259854533978
C  -13.157509796288  10.527142286270  4.504363266390
C  -12.411451347681  11.846802786333  4.401464735392
C  -11.282079851557  11.792209071874  3.382351694041
C  -10.275195920612  10.693482110447  3.695290611647
O  -9.817769545566  10.756598928354  5.040126625502
C  -9.050309875311  9.613028343189  5.404519327764
C  -8.562372139106  9.687234406812  6.841378849956
C  -7.866177746490  8.417253610427  7.319511885518
C  -6.536953208125  8.165794239338  6.624286933322
O  -6.646966894665  8.005577428161  5.218988078692
C  -7.260287317249  6.778082192467  4.840673731074
C  -7.172360175033  6.540593102040  3.340698224774
C  -7.820414293758  5.230190226233  2.895293892338
C  -9.333395370212  5.221460614758  3.057356901318
O  -9.920581969822  3.995703767594  2.628691883032
C  -11.329744922742  3.983682506050  2.836542013568
C  -11.966615190409  2.640973108729  2.503336545157
C  -13.475075666845  2.622745582408  2.739909137258
C  -13.848388499219  2.729926755462  4.211174883132
O  -15.251009129312  2.880257400973  4.407450576952
C  -15.666007786492  2.519765687758  5.717280544409
C  -14.935686718043  3.276102236110  6.817203255057
C  -15.432905036883  2.937528082355  8.217563497801
C  -14.703959618158  3.729137294627  9.290083147372
O  -15.148557381127  3.390532165114  10.596981689676
C  -14.365095709078  3.979474043554  11.621976102068
C  -14.420299338744  5.498493272629  11.615685374201
C  -15.850387728253  6.011405049617  11.631567090496
C  -15.909174250765  7.529419995965  11.613721611224
O  -15.256435780517  8.092321211229  12.745349724486
C  -15.404080473403  9.502575537564  12.834966356754
C  -14.550170553609  10.268114821359  11.835968527458
C  -13.053484490607  10.103949468587  12.083608103555
C  -12.563580837424  8.665575951252  12.022466522888
O  -11.141825607796  8.596761634639  11.996339280115
C  -10.647279472250  7.260656912733  12.009279982833
C  -9.172206621427  7.209947115584  11.640889041542
C  -8.605205072132  5.797344224309  11.591465954231
C  -7.155443635555  5.800377410108  11.133111868908
O  -6.322652500048  6.502364762559  12.049467115504
C  -5.117393910067  6.982149877643  11.462734329726
C  -5.296774656049  8.325436883656  10.770123056920
C  -3.995518651686  8.886554341384  10.212060461630
C  -4.191630013670  10.258248667484  9.585396622847
O  -5.087448144995  10.216570901885  8.483386679299
C  -5.371069607446  11.507142307201  7.951959260882
C  -6.393876259278  12.278128125362  8.773979308685
C  -6.841074404434  13.571168007798  8.098519834994
C  -7.869734295261  14.336219401664  8.915734291906
O  -8.274668817264  15.539772746641  8.273169931232
C  -9.369998475153  16.175393399578  8.919559083083
C  -8.982445757098  16.906192147560  10.199526990936
C  -10.186245568635  17.414723509987  10.991869667918
C  -11.061125985335  18.394958215334  10.223892535134
O  -12.246855128035  18.716557633243  10.944445065402
C  -13.113758553112  19.576743440788  10.218064380161
C  -14.430054220264  19.823807660044  10.943101421663
C  -15.215076379364  18.538258968359  11.182280860748
C  -14.617346845380  17.711216378235  12.311824150277
O  -14.719957149436  18.381765317786  13.552594962653
H  -6.545076999085  1.782647518140 -2.007568658939
H  -5.576517930050  0.052389624586 -4.033549237393
H  -7.260076787264 -0.041512243563 -3.541925840005
H  -7.578527505986  2.376884785637 -4.057341956731
H  -5.885725262870  2.549719757631 -4.416590205357
H  -7.810294771862  0.788716667245 -6.009879451988
H  -6.109581540482  0.991042860481 -6.356048364487
H  -7.473543398324  2.537381477756 -7.798316170871
H  -8.190793686416  3.241501659103 -6.358297778783
H  -4.981408463156  4.177293166866 -8.186729843471
H  -5.262581655269  2.460523045545 -7.959645369142
H  -2.979993337231  2.992369566525 -7.202291915049
H  -3.942143853666  2.538698796068 -5.816897330506
H  -2.478097647093  4.597763981832 -5.446142214025
H  -3.428520956007  5.444048365026 -6.636534290980
H  -4.506287822994  4.262936739405 -4.032434016361
H  -5.475924671256  5.130176635213 -5.239035145118
H  -4.446904412791  5.683641962857 -2.256413050164
H  -4.321278210898  7.406094008041 -2.543957148893
H  -6.562442491624  7.137430720770 -3.903831942037
H  -6.642304470776  7.247536797983 -2.165042633914
H  -6.707661378873  4.586388613369 -3.673830787549
H  -8.114133845666  5.429997340820 -3.119256260446
H  -5.894032546380  4.391558361647 -1.281132784042
H  -7.340911673567  5.245866782427 -0.759979254095
H  -8.559228653052  3.697819312349  0.285587030002
H  -6.993947699512  2.886787041556  0.389393836201
H  -8.028625831403  0.820167718833 -0.622222154201
H  -9.551647418490  1.652399313807 -0.751024680238
H  -9.524466071891  1.961513707411  1.793095923163
H  -8.099569703017  0.977902362019  1.868981240866
H  -10.738025695722  0.020274479665  0.631507532089
H  -9.313747232741 -0.968655570157  0.939064983455
H  -11.719583916177 -1.747526695667  1.833189093222
H  -10.235142525188 -2.426151141994  2.498649830164
H  -12.505557281035 -1.154697935896  4.112634271210
H  -11.003221135004 -1.694456194362  4.807466026948
H  -13.013249320895 -3.480659492397  3.342035316634
H  -11.486798327729 -4.042529790720  3.985528107214
H  -12.229088585739 -3.323920498077  6.293033564317
H  -13.311410397200 -4.533811610262  5.607504569856
H  -14.586178175940 -3.550190606331  7.428822526046
H  -15.505905740763 -2.118527148036  6.980647970329
H  -13.991916202950 -1.516817459730  8.861770864021
H  -12.612952321678 -2.136502533896  7.993456165578
H  -13.069567161251 -0.457357061213  6.143793848792
H  -14.338976897795  0.224033547130  7.108816549110
H  -12.705572845959  0.898545392614  8.859113187240
H  -11.421080489645  0.034810372440  8.013297339487
H  -10.265911480517  1.887252427898  8.075818928504
H  -11.482911178941  3.063157070460  8.551419697721
H  -10.052734634351  2.980349050346  5.842603922692
H  -11.248079087565  4.170482720734  6.294371610212
H  -8.784127198423  4.905763837951  6.538136263116
H  -8.663467832112  3.798974533501  7.887223635665
H  -10.593666979549  5.051718137206  8.999393947442
H  -9.192915545571  6.082329807204  8.712070651376
H  -11.968786053681  6.914560369582  9.058410400307
H  -10.581270021361  7.960190729533  8.762510977076
H  -13.053637790325  7.711979184839  6.986067877166
H  -11.672938917692  8.705596536341  6.603140589958
H  -13.642706749868  9.977829404880  7.628991599821
H  -13.381667828819  9.104593176057  9.111907500943
H  -11.049772314478  10.088704216096  9.236685584899
H  -11.390842349544  10.994475867597  7.758179778815
H  -11.523503608737  13.265753743737  8.736478157626
H  -10.515421483777  12.235363401566  9.756556755098
H  -11.862463597222  12.847519255251  11.750724114358
H  -11.150026722878  14.271115654742  11.036506940947
H  -13.980550249625  13.346705245905  10.392256730422
H  -13.647252468027  14.445771437469  11.712002037623
H  -12.704853737402  16.120649387104  10.127808762672
H  -14.331869028976  15.661682106346  9.631664159665
H  -13.660554070918  16.728393834303  7.889519204058
H  -12.005546153013  16.460089396101  7.361398022953
H  -12.789222878549  14.691794417053  5.779800202753
H  -13.556216712914  16.226254514472  5.432057859497
H  -15.327456538240  14.569410210854  5.353497460299
H  -15.555966206651  15.438460395170  6.846576388958
H  -14.325999272779  13.576101278558  8.068960426279
H  -14.234754621214  12.695976181181  6.552211621090
H  -15.454103955828  11.700743378743  8.866998789188
H  -15.535956305769  10.964018927549  7.265331132058
H  -18.025509215159  11.050545431190  7.340499197100
H  -17.972273321074  11.799298284696  8.911962389495
H  -16.930506618063  9.747592104097  9.891523828592
H  -18.445042686698  9.366669625954  9.129498618934
H  -15.650119309362  8.850202292006  7.996428888736
H  -17.097492285601  8.705059511713  7.023997369329
H  -18.466587479861  6.163014284623  9.049319111961
H  -18.856893631687  7.519343874664  8.006026992153
H  -17.341020301735  4.990679297718  7.183251736386
H  -18.984436449094  5.364393497341  6.732720877129
H  -18.134245438529  7.413722566473  5.495577636157
H  -16.508033853399  6.963820363627  5.929349136993
H  -16.816942960869  4.772233013956  4.669841239767
H  -18.418510992777  5.307569433353  4.203307504557
H  -15.521914518171  4.898665201780  2.926477355635
H  -15.325425175353  6.414246068219  2.058695873846
H  -14.779995952523  6.008389160957  5.041097278187
H  -13.539969847700  6.138017707642  3.827638550644
H  -14.155558151546  8.293533415606  5.186289789239
H  -15.595275902088  8.368818882318  4.210906932904
H  -14.227990562770  8.508218604634  2.132101795106
H  -12.752896804723  8.323458331485  3.062577242467
H  -13.978704831581  10.585690316652  5.228033030583
H  -12.477364715847  9.743566774953  4.851286804765
H  -13.120076522327  12.640335950024  4.134679660680
H  -12.001287137234  12.119104515029  5.382276172008
H  -11.698900220740  11.642166302663  2.378606040576
H  -10.763292406741  12.758523159315  3.354044998322
H  -10.722897267250  9.706201876240  3.539072960238
H  -9.399601982495  10.750884558534  3.037710988521
H  -8.205047506225  9.532607151311  4.711711821618
H  -9.676187565360  8.726194444168  5.257712981848
H  -7.893685390492  10.546980663722  6.945631104427
H  -9.418253400742  9.912305277448  7.486306073280
H  -7.710526218681  8.466590420066  8.404670209728
H  -8.531137569403  7.563790128571  7.157228521480
H  -6.027137849393  7.283317056878  7.028739829779
H  -5.858855486635  9.011167150225  6.783979460279
H  -6.769776918848  5.964208371722  5.385643380423
H  -8.303631697222  6.803265186961  5.167129909810
H  -7.637303962915  7.383284571370  2.816784322849
H  -6.116236368884  6.566723552308  3.045916144182
H  -7.394528245572  4.391475272411  3.457262926623
H  -7.577392960213  5.027464284936  1.846495051251
H  -9.787580535870  6.035242315882  2.481182789226
H  -9.611821973719  5.378559249962  4.104600211450
H  -11.512871190653  4.249673672074  3.881932787889
H  -11.767665854521  4.779982363866  2.224417834309
H  -11.487764092698  1.854656743656  3.098433497813
H  -11.744706025995  2.395982668362  1.457966097283
H  -13.922845240679  1.710344755256  2.327550756429
H  -13.941167866727  3.445907442625  2.188374565763
H  -13.363487859256  3.595323044846  4.672886110922
H  -13.506143949522  1.842878424087  4.756786748815
H  -15.536222412237  1.437975898910  5.820372947340
H  -16.744820836894  2.701051534011  5.775483945366
H  -15.029705517644  4.352950688185  6.641910745137
H  -13.861615638375  3.070425167469  6.760090961899
H  -16.509675350386  3.122344051392  8.297250014429
H  -15.313622832602  1.867087081545  8.415950064726
H  -14.856279150472  4.802466184239  9.135091310854
H  -13.625957842915  3.545942324628  9.236735339970
H  -14.757061868388  3.588474565294  12.567951431844
H  -13.338450553061  3.605901870734  11.528709907506
H  -13.901645064551  5.889436031160  10.733324839755
H  -13.874316536445  5.905027659964  12.475668923223
H  -16.359686965618  5.639347492415  12.527763298161
H  -16.403251133697  5.593861213116  10.780949989211
H  -15.425018143709  7.913074297070  10.710248748848
H  -16.946825138152  7.882607513587  11.604631497829
H  -15.127324450444  9.781504066722  13.857965745547
H  -16.469153820729  9.739564100485  12.726808391558
H  -14.815434543323  11.333367545168  11.859520276783
H  -14.787649531607  9.936470533148  10.820898643662
H  -12.781452901394  10.532924047831  13.054724472598
H  -12.487628091258  10.681598677101  11.344967415925
H  -12.926062255907  8.093108177468  12.883408694885
H  -12.938846700941  8.168863331454  11.122726264551
H  -11.237829490762  6.661511623407  11.308294990196
H  -10.818488279405  6.845024720319  13.008297796173
H  -8.596569186813  7.816599627951  12.349279192313
H  -9.030598161882  7.702035088607  10.672356022512
H  -8.670719500487  5.340715894883  12.585425813079
H  -9.217853962924  5.167635661225  10.935963776814
H  -6.757930335118  4.782820764362  11.039078040205
H  -7.069730362061  6.270379316615  10.147645604344
H  -4.383990098722  7.067869590176  12.272595114542
H  -4.731176587329  6.222750319545  10.773764626771
H  -6.034221683915  8.240208494274  9.966118255575
H  -5.734592497180  9.036451705845  11.479957773594
H  -3.593596737566  8.198521028217  9.459653973474
H  -3.241041324033  8.933556056303  11.007095071738
H  -3.241155088250  10.671067684375  9.227170009307
H  -4.590250219076  10.957887892022  10.326810688572
H  -4.432683791705  12.064624667872  7.857220282820
H  -5.738230527416  11.359112830764  6.930425220675
H  -5.987689449669  12.501731608631  9.766153244853
H  -7.262385096742  11.636852267812  8.961846387576
H  -5.975958874706  14.216747612912  7.910160657598
H  -7.258025479631  13.354824588889  7.108258089454
H  -7.464239198035  14.586589123099  9.900996288395
H  -8.758052740514  13.717863024338  9.081029237866
H  -10.142599678772  15.422743766539  9.108444276528
H  -9.794081087645  16.874543805382  8.190963266975
H  -8.316489241094  17.739484151453  9.948465413432
H  -8.382765856439  16.240708500872  10.830104516932
H  -9.862875391786  17.886548269377  11.927580876076
H  -10.803470097205  16.566293557473  11.304715484762
H  -11.362447389834  17.975055016082  9.259389439544
H  -10.518965915092  19.323590097084  10.014597988715
H  -13.300574478688  19.118200840735  9.240702643245
H  -12.576067431317  20.515099330996  10.037702116160
H  -14.224590612026  20.295178591411  11.911120925122
H  -15.036087355574  20.543120994525  10.376518456753
H  -16.254071796228  18.773754117668  11.444089903646
H  -15.261910656779  17.955698924239  10.254271598148
H  -13.556800656756  17.513853213509  12.111693538508
H  -15.120424183509  16.738877395303  12.397611725037
H  -14.272867742652  17.873597556347  14.268652227136
