46
pair_id=pair_607a6a8329ad6b63c6a5 start=4 nco_site=2 oh_site=2 attack_angle_deg=105.000000
O  -0.892359844500  1.922011143500  1.551618387200
C  -1.404048441200  1.265858264700  0.741439727900
N  -2.097646827800  0.724591544800 -0.055434653500
C  -2.188583977800 -0.380267317600 -0.939051686600
C  -1.948006681800 -1.723900442000 -0.237227573400
C  -0.600190088900 -1.812992178400  0.478380570900
C   0.590144176500 -1.814376315600 -0.479165993500
C   1.938255299900 -1.732525388000  0.236759994800
C   2.184943254300 -0.390931150000  0.940312561300
N   2.100561577500  0.715338087100  0.057787667700
C   1.411701532000  1.258791172400 -0.741747682600
O   0.904946916700  1.916913100500 -1.553406737200
H  -1.481714308000 -0.239304900100 -1.763952380200
H  -3.200357203700 -0.362292705500 -1.353096596100
H  -2.021952472600 -2.511158111200 -0.989744811800
H  -2.743023821800 -1.878381459700  0.495345010200
H  -0.520339529300 -0.972662132800  1.170725239600
H  -0.579098842200 -2.728618728900  1.073920219300
H   0.513845165600 -0.972072399900 -1.169506146300
H   0.565199503500 -2.728466370800 -1.076911659400
H   2.008388233900 -2.521130983500  0.988226084900
H   2.732711129400 -1.889708449300 -0.495850937800
H   1.477836651300 -0.247147674100  1.764520080100
H   3.196296960900 -0.378477551100  1.355590495500
C  -2.982801663982 -1.356464227322 -1.839228153461
C  -4.160170183316 -0.439579690521 -2.173946701431
C  -3.862976768365  1.051403235472 -1.989240086436
C  -2.686719266966  1.558823679515 -2.830443944389
O  -1.419384416191  1.236200577412 -2.298776470736
C  -2.671831022707 -1.423689187512 -0.341200062672
C  -1.217813037601 -1.825353592638 -0.079980861927
O  -0.317143525971 -0.768962731969 -0.306651292309
H  -2.107613158813 -1.005021462862 -2.386744999379
H  -3.205306313057 -2.363874193837 -2.198409478704
H  -4.444572070549 -0.604935192169 -3.215820389817
H  -5.017146354627 -0.706911360200 -1.550759176271
H  -4.752369840423  1.616870518770 -2.274699081005
H  -3.662277526339  1.269912150667 -0.937383479474
H  -2.709739487829  1.106827685882 -3.824913702615
H  -2.769323639584  2.648746074896 -2.947520108676
H  -1.337413853327  1.639369515452 -1.426144829753
H  -2.834346583693 -0.451849103614  0.127527102985
H  -3.337660618850 -2.139510446402  0.143459480925
H  -1.083808187198 -2.100859938717  0.969428266912
H  -0.956372018302 -2.695652291978 -0.701141701662
H  -0.489445383062 -0.397886390163 -1.183795567523
