47
pair_id=pair_90a17c3807fb14954fff start=1 nco_site=1 oh_site=1 attack_angle_deg=105.000000
C  -0.000459126700  0.000735647000  0.522920831700
C  -0.992010663100  0.785756250600  1.378015788600
C  -2.016019424300  1.545821546900  0.531210324300
N  -2.900118248500  0.690267334900 -0.172920072400
C  -3.027304416400 -0.361792352400 -0.706570253900
O  -3.350981806000 -1.330304924500 -1.258230835400
C   0.991685933700 -0.781037848400  1.380304733300
C   2.015050216700 -1.544161560500  0.535524113100
N   2.899661976200 -0.691079752300 -0.170947158200
C   3.028001394800  0.359617411700 -0.706957544600
O   3.352420678500  1.326287571100 -1.261459476700
H   0.543752107700  0.694726014500 -0.123116924700
H  -0.545127995300 -0.695790143500 -0.120004612200
H  -1.519839110600  0.103171708700  2.047840451100
H  -0.453194586000  1.512088430100  1.989342102200
H  -2.639266568200  2.176501823800  1.171880418400
H  -1.502500947100  2.189849824200 -0.192137373200
H   1.520081193200 -0.095964201300  2.047135765000
H   0.453279376600 -1.505025608900  1.994762298100
H   2.637854627800 -2.173717065300  1.177729304000
H   1.501047115700 -2.189637061700 -0.186196264700
C  -3.002657775870 -1.177916016143  4.198578374839
C  -3.953089055586 -1.752559414795  5.244361356196
C  -3.168517015676 -2.299512227114  6.436319176187
C  -2.174956445182 -3.359395489518  5.959676239924
C  -1.224542845577 -2.784701771706  4.913912865079
C  -2.009160515512 -2.237857959104  3.721943683240
C  -1.065712387721 -1.661040335942  2.660100463875
O  -1.737837295759 -1.215862684989  1.506535801348
C  -4.112105963672 -2.876479183364  7.497952962597
O  -3.440083323389 -3.322227918290  8.651349794164
H  -3.566541380893 -0.795040479909  3.346151565923
H  -2.448221195279 -0.341691268887  4.630659480838
H  -4.543159973532 -2.559033850554  4.802769723914
H  -4.646437252038 -0.977689642528  5.578716492161
H  -2.606105459241 -1.473371353427  6.891598472763
H  -2.729332543711 -4.195653034217  5.527580141796
H  -1.611067576716 -3.742235714439  6.812117390191
H  -0.634563976402 -1.978151785977  5.355490428498
H  -0.531111481853 -3.559509821105  4.579597275241
H  -2.571650149349 -3.064050758511  3.266854902147
H  -0.307730649098 -2.413917325858  2.394608793228
H  -0.550693515966 -0.780973396073  3.052544613388
H  -2.237055459043 -1.953597936640  1.138386138961
H  -4.627279301686 -3.756312535505  7.105188275048
H  -4.869954340209 -2.123558260936  7.763702128998
H  -2.940716447398 -2.584728958184  9.019788275893
