50
pair_id=pair_3f18c776b3702a389f8b start=3 nco_site=2 oh_site=1 attack_angle_deg=105.000000
C   0.159883306100  2.323753869400 -0.000995589400
C  -0.915882950700  1.477548341000 -0.000889906500
C  -0.733639648400  0.081070027900 -0.000518832500
C   0.583222895200 -0.449703940800 -0.000364756500
C   0.783355439400 -1.844419106000 -0.000205264700
C  -0.284573324100 -2.698870241200 -0.000232302300
C  -1.590540479800 -2.199499701100 -0.000313781500
C  -1.818214859700 -0.843116478200 -0.000342842400
N  -3.121474537100 -0.417891108100 -0.000126661600
C  -3.872846675800  0.506806114300  0.000830545000
O  -4.755064004400  1.257563566600  0.001595702000
C   1.674770097700  0.460296976500 -0.000398062000
C   1.463863819100  1.820274224000 -0.000699877800
N   2.939587000300 -0.071992494900 -0.000175286400
C   4.110474945300  0.148126150600  0.000736432600
O   5.267788579400  0.154240520700  0.001452554500
H   0.010107250600  3.392630684300 -0.001358245900
H  -1.917456576800  1.881777715100 -0.001153599100
H   1.795046022600 -2.219835175600 -0.000080892500
H  -0.129086437300 -3.766877366400 -0.000148362900
H  -2.432680020500 -2.873840173600 -0.000261212800
H   2.307590927200  2.494321811000 -0.000741655800
C   4.609015371175 -4.357787100105 -4.397349279039
C   5.361674382882 -4.885461464153 -5.419300378950
C   6.284668597192 -5.902903552954 -5.168740792267
C   6.430081738910 -6.373628797790 -3.873421956570
C   5.669510107580 -5.840962314403 -2.841198594872
C   4.754156522669 -4.830948642696 -3.091612492784
O   3.958769576801 -4.238945651168 -2.151368394220
C   4.059959790485 -4.665133542947 -0.807274325959
C   3.069890666643 -3.819116464511 -0.004022796745
O   3.425453579748 -2.463527714848 -0.002396589733
O   6.981297348654 -6.355961739334 -6.253425033333
C   7.928187923585 -7.389751290056 -6.071386965646
C   8.526122094402 -7.682238697460 -7.449133164316
O   7.568251965698 -8.194634845121 -8.334655089398
H   3.894309251637 -3.572728447364 -4.586061819473
H   5.253735419487 -4.522830906826 -6.428993078843
H   7.132471747746 -7.158145985997 -3.640635839210
H   5.809563621323 -6.232743424761 -1.846181932449
H   5.077588353890 -4.499953310665 -0.429348898200
H   3.803942765247 -5.728391916337 -0.714158830916
H   2.064678434840 -3.956842286962 -0.426750827957
H   3.067101288650 -4.142013213325  1.038905630191
H   3.537841575779 -2.193048790775 -0.922193585047
H   8.720373191955 -7.076735552076 -5.379043694112
H   7.438739462517 -8.292534404669 -5.682527653303
H   9.306155685323 -8.440890913404 -7.360497693437
H   8.966912004679 -6.756805619941 -7.845976222400
H   6.821486975489 -7.582776620285 -8.338546259962
