46
pair_id=pair_597bf6d46537121911f9 start=4 nco_site=2 oh_site=2 attack_angle_deg=105.000000
O   6.071138798300  2.480874245000 -0.539966886600
C   5.281563264000  1.703290642200 -0.203729312400
N   4.583194840700  0.895553337000  0.323028101100
C   3.469566272400  0.097992287700  0.217823463600
C   3.141003666300 -0.720825069600  1.291776942100
C   2.027239290200 -1.535897111400  1.217504870200
C   1.230376574900 -1.552900220000  0.080976745700
C   0.000129982500 -2.417918638600 -0.002577497200
C  -1.230253681400 -1.553071685200 -0.084299228600
C  -2.021435998300 -1.526209840700 -1.224619472200
C  -3.134787785500 -0.710465627800 -1.297435226200
C  -3.468763238200  0.098981255200 -0.218056518800
N  -4.581846364100  0.897438299100 -0.321975352000
C  -5.282652338400  1.701065266500  0.207899688400
O  -6.073694902800  2.476057311700  0.546553031600
C  -2.680498724400  0.084975519400  0.931153113200
C  -1.572915706700 -0.735626567500  0.987803746500
C   1.567638803400 -0.726117648500 -0.985674162700
C   2.675451036000  0.094047662700 -0.927432521900
H   3.761402694000 -0.710428411900  2.174324307200
H   1.779230559000 -2.170944736200  2.055913696000
H   0.058433977900 -3.056457871800 -0.886664495400
H  -0.057740878700 -3.058561817600  0.879976911700
H  -1.769229849800 -2.154027086400 -2.067217719300
H  -3.750781892300 -0.692421148900 -2.182945547900
H  -2.943609239700  0.716629811900  1.766859046600
H  -0.960209384700 -0.742612630800  1.877475508100
H   0.950329509800 -0.725172817000 -1.872181069100
H   2.934211927200  0.733133578500 -1.758835180200
C  -2.718431004465  1.341856282917  3.389251604685
C  -3.328000888664  0.509349290112  4.516544779625
O  -3.510742767438 -0.801507489221  4.025633396918
C  -4.112517217629 -1.674065846023  4.957959016931
C  -4.199280302797 -3.053996742476  4.307041048393
O  -2.928742228063 -3.589921361225  4.054612904718
O  -3.594784828696  1.464620321378  2.301985899044
H  -1.774245683036  0.874453309389  3.075010549136
H  -2.515412005048  2.354313909483  3.743212334547
H  -4.296046416886  0.936298357376  4.816762769266
H  -2.659787444986  0.503333768155  5.389947887913
H  -3.501423503398 -1.727766865786  5.870767671709
H  -5.116880609140 -1.316018344540  5.227100856535
H  -4.776457068791 -2.969900382378  3.375107731103
H  -4.704723920854 -3.750459686901  4.978655401852
H  -2.425252451304 -2.921502515362  3.573726687534
H  -3.887063750620  0.575383142590  2.066676282227
