154
pair_id=pair_d0f7348c2ab6da21546e start=2 nco_site=1 oh_site=2 attack_angle_deg=105.000000
C   0.284581330700 -2.856296821600 -1.075228802200
C   0.162525852300 -1.597457455400 -0.204947230400
C   0.845005092100 -1.904537770700  1.131145514700
C  -1.328669048700 -1.291252660800 -0.005722197300
C  -1.570475083400  0.087872243400  0.610820554000
C  -0.957110448900  1.181183157800 -0.269036073900
C   0.549683356000  0.994266183800 -0.497159448500
C   1.002261202900  1.956948628000 -1.604047402300
C   1.307902346100  1.391971275300  0.789954740500
N   2.703572888200  1.171113099200  0.732383851000
C   3.569168631800  0.422084370500  0.420855653800
O   4.549802891200 -0.154504117100  0.185714036600
C   0.831914196600 -0.441038993400 -0.968894226600
N  -2.963431143600  0.322177330700  0.785377568700
C  -4.013442667400  0.395831636900  0.235484889300
O  -5.116375984200  0.510373170000 -0.104212560000
H  -0.200973184600 -3.701335647600 -0.592771820900
H  -0.180392270100 -2.708228461400 -2.047427195000
H   1.331183276900 -3.106678504200 -1.231501354200
H   0.669336818000 -1.138529666000  1.878580217000
H   1.919144116400 -2.004976794700  0.992809095200
H   0.466878515000 -2.844074041600  1.529162011100
H  -1.834031280800 -1.321260360500 -0.974603031900
H  -1.780892848400 -2.056062502900  0.628522771700
H  -1.151102782700  0.129873374500  1.620567689400
H  -1.463600897200  1.156635133100 -1.237165534300
H  -1.148305840500  2.158375955300  0.179489575800
H   0.772454559600  2.985326617500 -1.333946347600
H   2.075584442100  1.874781849200 -1.759270064200
H   0.502011787900  1.732699420800 -2.543044673500
H   0.909588571900  0.871441133300  1.663883790100
H   1.176321145700  2.466024633200  0.954683369000
H   0.487257832900 -0.500634134700 -2.004285460000
H   1.911225245100 -0.607683746400 -0.987976068100
O  -5.168457175645  18.373848190501 -32.747606577526
C  -4.268050474731  17.719396099289 -31.864443191839
C  -5.034261967288  16.798832450078 -30.923860152350
C  -6.156384871688  17.485637325308 -30.136237754681
C  -5.710408594102  18.700973262688 -29.330093848550
O  -4.623115909103  18.335910906856 -28.482096725609
C  -4.183497989880  19.434269630004 -27.684798156472
C  -3.029931215439  18.959881059839 -26.809165686069
C  -2.473025279834  20.096244075336 -25.950821824164
C  -1.314949099001  19.637019078178 -25.070717225113
O  -1.795786198048  18.684845510191 -24.125159340812
C  -0.754352080027  18.209000817550 -23.274993447044
C  -1.325093911129  17.180227716866 -22.304371526006
C  -2.399967127912  17.780716512609 -21.391420833542
C  -2.962672683601  16.750219914493 -20.413557916779
O  -1.950746383488  16.172332124934 -19.589809850093
C  -1.574168081715  17.000215322474 -18.490314473750
C  -0.509883600313  16.258979569165 -17.687537096152
C   0.046258186154  17.068583847918 -16.519604499421
C  -0.976474124528  17.334915581105 -15.419554632398
O  -0.314705316683  18.038800262919 -14.368777627106
C  -1.182992055098  18.417697532972 -13.302760713526
C  -1.598869261918  17.244160206517 -12.416048246518
C  -0.394708707599  16.457314466144 -11.888075756943
C  -0.808573092222  15.346887387881 -10.926517468617
O  -1.650336794553  14.420965814258 -11.610974423309
C  -2.067381347005  13.328670475986 -10.792943973375
C  -1.019590329616  12.218808365978 -10.796962021438
C  -1.488173776108  11.006245841136 -10.000238310948
C  -0.454005437603  9.887409868633 -10.017555733054
O  -0.958782047329  8.806166068113 -9.236408352162
C  -0.054676155226  7.706201957972 -9.204146170277
C  -0.640324282785  6.597336119577 -8.334301497673
C  -0.996155572214  7.026740117535 -6.907915552126
C   0.198477403699  7.549463832715 -6.113104759045
O  -0.183272085942  7.838640427858 -4.767745834758
C  -0.100657742928  6.722515246417 -3.883419452595
C   1.310986186481  6.552512839695 -3.322953088893
C   1.786126750100  7.799797940943 -2.569255454568
C   3.199588169033  7.632941124443 -2.013470685358
O   3.322749891410  6.494218525931 -1.163260356227
C   2.815915709001  6.710378836805  0.150932619211
C   3.053262093486  5.455708104708  0.988671556341
C   4.546399345031  5.154126598326  1.166246872340
C   4.799185086284  3.976696581731  2.102278041601
O   4.375223877957  2.751495339331  1.522726552968
H  -4.628318790430  18.896519098220 -33.364693862421
H  -3.560722295844  17.134446308150 -32.461378763470
H  -3.703528539460  18.476516312842 -31.311908453343
H  -4.328432790327  16.323221143191 -30.233013044246
H  -5.491760276187  15.993954971411 -31.512758465424
H  -6.577383542396  16.741732531390 -29.448218036963
H  -6.964567453265  17.781722547791 -30.815072674016
H  -5.403767835201  19.515566170237 -29.995475217825
H  -6.548220250237  19.055138175112 -28.718216009399
H  -3.852887753045  20.249119271579 -28.339107700505
H  -5.011470032478  19.789813200309 -27.060783475191
H  -2.238242692625  18.543653867834 -27.444700422795
H  -3.375290715885  18.131204948788 -26.178846684460
H  -3.276422324805  20.489306472088 -25.315979870805
H  -2.129984116377  20.911728672567 -26.597928749461
H  -0.524291444529  19.188897822260 -25.683482778989
H  -0.901223627514  20.499238789916 -24.535483131611
H   0.026357498445  17.739322601885 -23.884135618475
H  -0.314705539541  19.048244744189 -22.723767820844
H  -1.768119369267  16.354194276074 -22.873926167132
H  -0.505952507836  16.768868216449 -21.703954606228
H  -3.225870624893  18.177496553019 -21.993048365917
H  -1.968674633765  18.624541683219 -20.841890672311
H  -3.751338928972  17.192019202224 -19.793405565963
H  -3.420897645225  15.930504347254 -20.977836921590
H  -2.456429180090  17.197327238493 -17.872801392658
H  -1.170453769890  17.949901404919 -18.855059640605
H  -0.917442981780  15.305655693382 -17.328545504280
H   0.315169784647  15.990459433297 -18.359706197607
H   0.455542962272  18.020880087545 -16.879461453202
H   0.897922596980  16.529216663536 -16.085552931621
H  -1.372360783945  16.385651182517 -15.045286683308
H  -1.801640303836  17.946952902822 -15.797618379592
H  -2.064124312186  18.933938669575 -13.701336620490
H  -0.635463322305  19.146889646448 -12.695317410983
H  -2.188910840951  17.629505900201 -11.576020081707
H  -2.253759667975  16.571112268456 -12.980244674702
H   0.296138630512  17.136403700798 -11.375373872469
H   0.142759310894  16.011635082375 -12.733563782728
H   0.088646391637  14.838310985621 -10.559411176700
H  -1.347350850283  15.770677622993 -10.071258869546
H  -2.295039695728  13.669440580413 -9.776028358941
H  -2.999239889730  12.948729409176 -11.225805935408
H  -0.075409410130  12.590885613576 -10.383457226562
H  -0.801480307050  11.932260689595 -11.833286537786
H  -2.436265617551  10.628669123192 -10.403303014044
H  -1.696555757287  11.292749057471 -8.961725819492
H   0.491833449949  10.237512734822 -9.588464366888
H  -0.278068415650  9.547847200978 -11.044680282140
H   0.093405511864  7.327491556169 -10.222096247139
H   0.916258795233  8.030953393492 -8.814283306346
H   0.061568057458  5.755927482275 -8.301915688657
H  -1.560049823171  6.230974482311 -8.807264341337
H  -1.442129624278  6.170215763104 -6.388875172023
H  -1.781535211488  7.792630259626 -6.923131195783
H   1.038300276084  6.846965123643 -6.142703936856
H   0.544910148346  8.493681011327 -6.544979750616
H  -0.432194708395  5.802801013445 -4.377474569965
H  -0.796323788991  6.914099337927 -3.059130109996
H   2.013739537253  6.344105482972 -4.137391152920
H   1.319080209543  5.683305499824 -2.655421677866
H   1.085421344188  8.010655959463 -1.753866606333
H   1.774904040534  8.670297294858 -3.235227035325
H   3.897108309310  7.484796519879 -2.845284862472
H   3.520206774308  8.538436562684 -1.485265862511
H   1.740550887557  6.909835088596  0.106389170823
H   3.316658635686  7.571284150481  0.608371328231
H   2.567250678477  4.604870776717  0.497511923861
H   2.583851996999  5.588153253704  1.970200971724
H   5.047277264199  6.040342111826  1.573218328613
H   4.991712579278  4.938930658515  0.187777470791
H   4.288993394524  4.109064229162  3.061865252571
H   5.871717207754  3.889441740597  2.302310789822
H   3.416544882560  2.803648038828  1.375787617930
