271
pair_id=pair_d434badaff61c4b9cbd1 start=1 nco_site=1 oh_site=1 attack_angle_deg=105.000000
C  -0.000459126700  0.000735647000  0.522920831700
C  -0.992010663100  0.785756250600  1.378015788600
C  -2.016019424300  1.545821546900  0.531210324300
N  -2.900118248500  0.690267334900 -0.172920072400
C  -3.027304416400 -0.361792352400 -0.706570253900
O  -3.350981806000 -1.330304924500 -1.258230835400
C   0.991685933700 -0.781037848400  1.380304733300
C   2.015050216700 -1.544161560500  0.535524113100
N   2.899661976200 -0.691079752300 -0.170947158200
C   3.028001394800  0.359617411700 -0.706957544600
O   3.352420678500  1.326287571100 -1.261459476700
H   0.543752107700  0.694726014500 -0.123116924700
H  -0.545127995300 -0.695790143500 -0.120004612200
H  -1.519839110600  0.103171708700  2.047840451100
H  -0.453194586000  1.512088430100  1.989342102200
H  -2.639266568200  2.176501823800  1.171880418400
H  -1.502500947100  2.189849824200 -0.192137373200
H   1.520081193200 -0.095964201300  2.047135765000
H   0.453279376600 -1.505025608900  1.994762298100
H   2.637854627800 -2.173717065300  1.177729304000
H   1.501047115700 -2.189637061700 -0.186196264700
O  -1.737837295759 -1.215862684989  1.506535801348
C  -1.058920637918 -1.665538808157  2.671757110543
C  -0.040309009833 -0.611909483620  3.085031710478
C   0.685158683707 -1.002707936260  4.373208374276
C   1.693720043175  0.057679077709  4.805130176260
O   2.771050128003  0.089436717323  3.871934974559
C   3.700795967259  1.129037598477  4.165900235957
C   4.904303229556  1.011582748390  3.235357759130
C   4.518226221228  1.122908804281  1.761211184606
C   5.733264330775  0.974417132284  0.854090320819
O   5.281253214626  0.981338170925 -0.499369490880
C   6.358478627067  1.101452046969 -1.423503018405
C   5.792195768078  1.060957864307 -2.839268447965
C   5.228550367630 -0.305720651598 -3.238242018551
C   6.318715692876 -1.335627988518 -3.518058057259
O   5.705636830195 -2.515836882937 -4.040730983788
C   6.643867174817 -3.323649480800 -4.755245704384
C   5.918731301178 -4.555831005694 -5.280978239681
C   6.665321368001 -5.274543185103 -6.406626916449
C   8.089019874766 -5.705696818611 -6.071248575264
O   8.072410835754 -6.551749056832 -4.926784131954
C   9.342001357657 -7.170098156137 -4.710554972519
C   9.250766733805 -8.063698691273 -3.480831325121
C   9.187848272614 -7.252144248098 -2.187158093899
C   8.877706099694 -8.150351847942 -0.999370128003
O   9.009915585981 -7.402077265917  0.205498992243
C   8.469201275494 -8.125152779577  1.312681485250
C   8.705223429726 -7.320822524554  2.582505886699
C   8.277782462936 -8.103400730711  3.823396610894
C   8.603991808627 -7.362237673078  5.114938541129
O   10.017697579059 -7.206502262957  5.222897513662
C   10.404996961850 -6.639103450622  6.468513766523
C   11.921314243661 -6.464060202440  6.524431035424
C   12.464741004618 -5.344142798570  5.624097844802
C   12.435436550672 -5.645613859226  4.128256961175
O   13.191794104635 -6.826391634539  3.872541048046
C   13.082679774157 -7.250231929003  2.514336774237
C   13.725180613179 -8.628145684138  2.409108026637
C   13.681611541416 -9.240078303469  1.011196463529
C   12.266533069367 -9.384235550050  0.452803568724
O   12.269674195712 -10.276924089430 -0.666088129887
C   12.033728327793 -11.638119192807 -0.291592970425
C   10.535196670037 -11.932643843997 -0.260783009287
C   9.947208716846 -12.041308268162 -1.673023706219
C   8.421491813293 -11.980227631066 -1.682429127542
O   7.891664484429 -12.866521059063 -0.702977824351
C   6.468114849068 -12.971799910685 -0.722734995040
C   5.760509620997 -11.656101218156 -0.393984959421
C   4.272276924353 -11.880276921234 -0.122049216162
C   3.485180613400 -10.575688960574 -0.048602790532
O   4.016147244074 -9.738973914063  0.977435548390
C   3.277498128926 -8.523539322633  1.113410527772
C   4.141845067350 -7.312409429019  0.775216521288
C   4.690893936221 -7.361168054851 -0.653001470671
C   5.259102875871 -6.020498647813 -1.104325697273
O   6.266740944883 -5.592213322094 -0.194903310056
C   6.819733532663 -4.336525679651 -0.579998354147
C   7.807009241872 -3.895902081800  0.491757696594
C   8.397184983197 -2.520020348083  0.180591147898
C   9.333286879097 -2.036392008648  1.283676542355
O   8.587240058458 -1.906540782480  2.489361658298
C   9.387494742438 -1.480163223589  3.588819029531
C   8.602443597950 -1.720950533835  4.875586808794
C   8.430108007232 -3.221925928183  5.145548111375
C   7.511127686792 -3.502412673248  6.333986505881
O   6.171372798754 -3.065776852447  6.119635028290
C   5.445774148020 -3.844345973681  5.162686759218
C   5.066316852919 -2.942790182673  3.997326348392
C   4.271924480269 -3.668654379884  2.918128814710
C   3.966409540131 -2.721071082704  1.765425229876
O   3.172852147754 -3.392971683361  0.789463224497
C   2.973145750672 -2.564858917314 -0.356985247690
C   1.809075312395 -3.111945675608 -1.173025666651
C   0.499060341893 -3.001408173546 -0.398585797711
C  -0.704768762870 -3.427908647937 -1.225165780029
O  -1.869123356221 -3.308494765944 -0.399451251066
C  -3.059068546113 -3.605970388143 -1.132106513674
C  -4.216340097157 -3.689669908676 -0.143836975464
C  -5.532384332893 -4.031996666774 -0.843243432096
C  -6.668216332391 -4.318872628958  0.143312713707
O  -6.301852165372 -5.275971550459  1.134821914856
C  -6.257703522989 -6.618213554287  0.656665024116
C  -5.430003692886 -7.432887847441  1.643776405862
C  -5.100236622797 -8.815475183190  1.094587959030
C  -4.135677629847 -9.564765848063  2.008374894897
O  -3.682956064001 -10.743882707577  1.342271539914
C  -2.293213776512 -10.724854789253  1.009683662501
C  -1.999378663306 -9.780162676232 -0.154816675689
C  -0.531668649859 -9.827349239382 -0.564605461160
C  -0.249297674586 -8.912677764521 -1.752689179705
O   1.139264096608 -9.010840277855 -2.065488367871
C   1.483598091369 -8.423450794873 -3.320517386669
C   1.471520826613 -6.896426426006 -3.276146823552
C   1.990201650900 -6.306694384973 -4.589813910547
C   2.061101906845 -4.785808609764 -4.564610582187
O   0.767860026298 -4.239412702086 -4.343819562957
H  -1.902334741079 -2.007879762916  0.951053285751
H  -1.802681492908 -1.828955844549  3.457545377618
H  -0.563113976470 -2.617743242449  2.458183941490
H   0.677388100936 -0.465273461660  2.268219173263
H  -0.547620098875  0.352241451469  3.214873621153
H   1.202487284904 -1.957309976523  4.217697117799
H  -0.048440561970 -1.145403772857  5.175030911936
H   2.089723030268 -0.199799957222  5.793986103134
H   1.214482908361  1.041863631768  4.862361911505
H   3.212637910379  2.101545089756  4.035832613093
H   4.038671886016  1.039482647591  5.204769069418
H   5.632711748274  1.790402257094  3.488884469825
H   5.390134803034  0.042921290521  3.399293023792
H   3.773533474250  0.365856708943  1.492525514634
H   4.038138796141  2.090479958672  1.568463469691
H   6.249720851145  0.028908666093  1.050744620266
H   6.429471907283  1.803848369008  1.024734419987
H   6.855711200037  2.065211813058 -1.264501935999
H   7.088430088164  0.301986718748 -1.261991717492
H   6.567414944743  1.362331040505 -3.553122303403
H   4.979248018632  1.794098654640 -2.912683985490
H   4.625731670662 -0.184723286419 -4.147640815887
H   4.537502293008 -0.686259150304 -2.477584841180
H   6.860175987755 -1.600686121511 -2.604700385875
H   7.030415060196 -0.925623128146 -4.244536779953
H   7.464245795333 -3.611506929394 -4.088440219747
H   7.046832087919 -2.741464571116 -5.592045058375
H   5.723961887622 -5.243486402844 -4.449460586121
H   4.930274443444 -4.263059917737 -5.655475822143
H   6.081497660439 -6.164266124247 -6.673966728292
H   6.690086501258 -4.630855710087 -7.293984610013
H   8.726320007579 -4.837154156031 -5.872872092720
H   8.503876896203 -6.247326354701 -6.929695371335
H   9.590502451820 -7.785424431655 -5.582846631875
H   10.116453273043 -6.405130334901 -4.583302577896
H   8.358273784428 -8.696751640163 -3.558341802628
H   10.125824928377 -8.723140841264 -3.445793290055
H   10.137771418318 -6.728706155196 -2.023129176389
H   8.421122163623 -6.472629641925 -2.254047040895
H   7.858412534469 -8.541550662507 -1.093305683809
H   9.577597114902 -8.990393011325 -0.965887691323
H   7.395836905120 -8.285129895079  1.160929958693
H   8.966585655081 -9.099074738627  1.384530623556
H   9.764320921053 -7.052823698930  2.640166747910
H   8.158533085149 -6.371744127917  2.525044282719
H   8.795362595356 -9.070582485403  3.829739811922
H   7.200840870395 -8.302797258376  3.780215441379
H   8.231552759084 -7.940590964505  5.968055942811
H   8.125953912784 -6.377873452540  5.118110564316
H   9.905373909842 -5.676097637103  6.615801112251
H   10.096321538628 -7.315251172432  7.274282123160
H   12.193895615602 -6.220502015471  7.558674923985
H   12.413572571938 -7.411361175237  6.276048372607
H   13.509627599964 -5.174571578185  5.914170856392
H   11.922716969624 -4.412055270421  5.820661188142
H   11.406649798874 -5.756419893617  3.775572105731
H   12.889905997057 -4.811652972154  3.580961302042
H   13.596953859426 -6.531240030801  1.867490793415
H   12.028336449300 -7.299981905738  2.228117744335
H   13.235948028183 -9.306269605186  3.120462855319
H   14.769035743775 -8.563695391826  2.741502758602
H   14.174542751929 -10.219125992579  1.043296086032
H   14.278988529418 -8.635399287674  0.317517232711
H   11.559688644385 -9.718502728164  1.220543195311
H   11.919702965818 -8.412916775884  0.085321006979
H   12.489770954079 -11.855291343032  0.681219510660
H   12.528664925761 -12.275652419835 -1.031951950756
H   10.370547067778 -12.879352281743  0.266979136763
H   10.008587898295 -11.148932648672  0.293745078209
H   10.334555213224 -11.247837762963 -2.322223626716
H   10.270031362450 -12.997098955329 -2.104079479468
H   8.047818878264 -12.249296384388 -2.676761793085
H   8.108794814672 -10.957664458332 -1.456037704414
H   6.145908555746 -13.356691774273 -1.697447412663
H   6.205452294914 -13.727826650837  0.025265795285
H   6.241395474675 -11.182668514441  0.470551452735
H   5.876963630396 -10.959009112387 -1.232166560174
H   4.168734701269 -12.419604404694  0.827373535969
H   3.837095834875 -12.509088380765 -0.907599817335
H   2.437022087485 -10.805079412084  0.174475174666
H   3.536636495167 -10.057484607668 -1.011961904737
H   2.960103554703 -8.453827203684  2.159374794770
H   2.369649156276 -8.523455188242  0.499122733217
H   3.542088084240 -6.405882274812  0.917039874569
H   4.983274457875 -7.263336048515  1.476886820788
H   5.478009477207 -8.122255787200 -0.700787003653
H   3.904430603502 -7.660159508584 -1.352868741601
H   4.458648913065 -5.273622610836 -1.148435553267
H   5.691363213213 -6.128205690156 -2.105314923544
H   6.019450615893 -3.596022013612 -0.678014449157
H   7.324946594213 -4.437682102876 -1.546575646693
H   8.609724295344 -4.637507984374  0.578853565980
H   7.297568248447 -3.890050546073  1.462986147409
H   8.941219171822 -2.555081107447 -0.770096433623
H   7.576171682591 -1.802888871335  0.067818070752
H   9.754968798709 -1.062444991931  1.011730823026
H   10.151323530066 -2.752012269585  1.425363462289
H   10.335150791896 -2.030856338214  3.616059703311
H   9.601744410620 -0.412410046018  3.472864200937
H   9.130382014769 -1.259174362090  5.717628341060
H   7.620571681427 -1.241278977084  4.794861547392
H   8.040252360091 -3.717450196249  4.250169956767
H   9.414760106868 -3.659320299088  5.345731623684
H   7.885626863377 -2.972597392483  7.216690374309
H   7.508812087714 -4.569142332432  6.583715897853
H   4.540823999208 -4.209225153117  5.660095446823
H   6.012757821819 -4.719026498597  4.823759797922
H   5.972231886276 -2.511622536328  3.557880478573
H   4.489141277331 -2.093325969601  4.381617607995
H   4.831930527177 -4.533332089104  2.542130763464
H   3.336197904830 -4.065259774264  3.330130321760
H   4.898080899335 -2.368864572360  1.307576744991
H   3.403451154907 -1.860093371086  2.137439153839
H   2.765654221790 -1.529815145470 -0.059361998698
H   3.886517386553 -2.576902793161 -0.959912636403
H   1.735483932706 -2.551198618457 -2.111221206377
H   1.991037972125 -4.164577592253 -1.416190353008
H   0.354462612562 -1.966531834580 -0.066688550101
H   0.543436754476 -3.609131679333  0.513279437431
H  -0.595705940945 -4.468790083126 -1.549941802256
H  -0.810488429960 -2.783234492929 -2.105089259511
H  -2.943106364088 -4.563173985116 -1.654016079905
H  -3.236341316308 -2.814626420619 -1.868802634256
H  -3.967474282736 -4.442207108953  0.613988681799
H  -4.312929784132 -2.740772722724  0.397839291693
H  -5.376639593178 -4.903882055404 -1.488019480749
H  -5.828870813787 -3.207567407406 -1.502469217142
H  -6.922275015733 -3.394617072360  0.673531945830
H  -7.570389356841 -4.650116519945 -0.383735960290
H  -5.796543930744 -6.666154444204 -0.334028233223
H  -7.278448857613 -7.008941848943  0.586339119612
H  -5.964096206615 -7.513186310179  2.598314984712
H  -4.501983315137 -6.888999941537  1.862783361080
H  -6.016205334133 -9.405031045493  0.965346274423
H  -4.664052356131 -8.724737495930  0.093094390002
H  -4.660401627402 -9.879318458111  2.916932837401
H  -3.297598124876 -8.928956868790  2.317490151961
H  -2.026084838631 -11.747893634028  0.722993466563
H  -1.698941228822 -10.473286507516  1.896146943958
H  -2.641018231979 -10.045272802149 -1.004126996289
H  -2.265514307771 -8.752597460740  0.118033008614
H  -0.240081041335 -10.853422327759 -0.821360297336
H   0.104005523678 -9.536341890267  0.280293982258
H  -0.852445781070 -9.223135676044 -2.613541844052
H  -0.494514395287 -7.877037610034 -1.495637403104
H   2.496348622838 -8.770229816419 -3.554226148803
H   0.824021006446 -8.806449369602 -4.108126370416
H   0.454566082269 -6.538284998767 -3.081624544177
H   2.080980561338 -6.548904555517 -2.434403453115
H   1.323291148617 -6.621639890263 -5.401753490396
H   2.988224039596 -6.704164262940 -4.808454458432
H   2.429783722790 -4.414982680109 -5.526082182056
H   2.734714996318 -4.438812398097 -3.775308194714
H   0.865389715974 -3.272442646575 -4.400638298966
