369
pair_id=pair_19e6c3e0a0de52025d7a start=2 nco_site=1 oh_site=2 attack_angle_deg=105.000000
O   6.618264355100  0.143538449800 -1.688772552200
C   5.816657291800  0.056693374400 -0.854090093000
N   5.168305460200 -0.077203069200  0.131054582300
C   3.854011754200 -0.052937900900  0.673130753600
C   3.208913872000  1.324955326500  0.505592565300
C   1.816479531100  1.330099716500  1.127972203900
C   0.915975883400  0.265277561500  0.494741769900
C   1.575300343600 -1.106616265900  0.646848687500
C   2.969563288100 -1.121854323200  0.026592232800
C  -0.471566668400  0.318794788400  1.144508880200
C  -1.531720426600 -0.614503699000  0.548593741600
C  -2.815889084600 -0.520079738200  1.377955627300
C  -3.901240110600 -1.443307734100  0.834788234600
C  -4.215431931400 -1.131031945700 -0.633160601400
C  -2.931460693800 -1.192021334500 -1.468816570500
C  -1.850234206100 -0.273002050300 -0.907919417400
N  -4.855865099800  0.132195613900 -0.765308668800
C  -4.715970678600  1.296887398100 -0.579600605500
O  -4.781695726700  2.452432031500 -0.482541701300
H   3.969545924300 -0.273189232200  1.741047915900
H   3.836149805100  2.083749329600  0.977052012800
H   3.142337409400  1.557949739500 -0.559917029900
H   1.898918572600  1.140301456600  2.200766512800
H   1.366995500400  2.316357678000  0.998420659100
H   0.822792117200  0.492510003800 -0.571700099600
H   1.645879490100 -1.356204628000  1.708123695400
H   0.969045823200 -1.872128855900  0.161264418100
H   2.901208685400 -0.921631752800 -1.045633449400
H   3.428518868200 -2.103936366600  0.155965136700
H  -0.843348377200  1.344547930400  1.077407088700
H  -0.362537387200  0.081373795700  2.206152281500
H  -1.171999744600 -1.647583393000  0.596726238500
H  -2.605958818300 -0.783409642800  2.416616017800
H  -3.176915567100  0.511493151300  1.366280192100
H  -4.810035213800 -1.341777785600  1.430961935200
H  -3.567918939900 -2.481073930500  0.896756635300
H  -4.936516961100 -1.862698729600 -1.016941204600
H  -2.574708747800 -2.223980911300 -1.464940239600
H  -3.156569269900 -0.914536712900 -2.500403691300
H  -0.955847295700 -0.371101252100 -1.524329068000
H  -2.184966647800  0.765627050600 -0.969067221100
O   25.060455742415 -11.981986280454  14.766151816930
C   25.499226904231 -11.816621268782  16.100430360977
C   24.344462401929 -11.614464390343  17.071243333152
C   24.759786626614 -11.590704635784  18.534263630225
C   23.554803724555 -11.392332884211  19.440368936126
O   22.551979965812 -12.381867374005  19.249202472461
C   22.884259252304 -13.657389185849  19.800953329777
C   22.888553506182 -14.774696414282  18.765805958660
C   21.525552095944 -14.977140033148  18.105832038142
C   21.111771243204 -13.817489420122  17.213856021291
O   19.835003747197 -14.016095405993  16.621665140337
C   19.583750885866 -13.201191013395  15.482121527350
C   19.507660469879 -11.699345916541  15.777059326578
C   20.851855313340 -10.967405643914  15.743996665812
C   21.464710676747 -10.879219913399  14.352771615148
O   22.725922260618 -10.209705405934  14.361292669418
C   23.091411271275 -9.717650082952  13.074218141090
C   24.449755461649 -9.034897062316  13.079894433604
C   24.830341708962 -8.464850701151  11.717123494743
C   26.100247770163 -7.627208805011  11.767788239309
O   26.341738612426 -6.931171688302  10.549295119807
C   27.632108588109 -6.328291396356  10.518190508752
C   27.817391167451 -5.432455557179  9.303222774001
C   29.229781638045 -4.873256062461  9.178259999843
C   29.388994347253 -4.005702359448  7.938682883956
O   28.544557177523 -2.862210070483  7.984198959336
C   28.395429248224 -2.219484566445  6.724573542390
C   27.443640363894 -2.967264354503  5.802259645765
C   26.121419548254 -3.244522499455  6.502054411737
C   25.174836502989 -4.130214023959  5.709042529361
O   24.041108348141 -4.512984466258  6.483069376827
C   23.184394089241 -5.410747284504  5.783612592300
C   22.227026539025 -6.136127273863  6.716526704117
C   21.287140218185 -7.084523258857  5.977163993714
C   20.187267136716 -6.329342066986  5.247917538872
O   19.355608714880 -5.623856055398  6.160128306745
C   18.322243369088 -4.888198212308  5.510473294618
C   17.468631631888 -4.131256880955  6.514575808949
C   16.285962610244 -3.386892825505  5.895729586405
C   15.186527960449 -4.302501234340  5.380382788488
O   14.125315480427 -3.584942836799  4.753169745441
C   13.015175474172 -4.425738660739  4.446348116479
C   12.134584767893 -3.846498177753  3.348302089358
C   11.552506677773 -2.490230998211  3.725883581909
C   10.431624109385 -2.590352243609  4.752121279573
O   10.824232640245 -3.296833759969  5.923166732409
C   9.849107648305 -3.260336721569  6.966705154376
C   10.474451122041 -2.957632703696  8.320297228713
C   11.170288876613 -1.598428151748  8.344620513098
C   12.442558247071 -1.556677848181  7.511753038182
O   12.996393892230 -0.247917907887  7.442210620547
C   14.248834772247 -0.231529857889  6.767374186638
C   14.818044448603  1.173278905898  6.647388384651
C   16.170354628752  1.223338632169  5.936390096724
C   17.233253645444  0.377598753487  6.625997796988
O   18.543586799656  0.574297312138  6.103199661917
C   19.191210952419  1.734075844373  6.622403302094
C   20.148350599515  1.417495357980  7.764787525457
C   19.467504513134  0.729692376665  8.940436554060
C   20.406420327119  0.440475768740  10.102804849432
O   19.761990063841 -0.247832573848  11.176104999045
C   20.099699406916 -1.624853393188  11.246250857841
C   19.533598195216 -2.437743646049  10.094154870987
C   18.005753483190 -2.374756265061  10.040654150277
C   17.335328642387 -3.306922654603  11.040296956940
O   15.915016926488 -3.320032216487  10.957032353590
C   15.430237673854 -3.664301314443  9.663825416392
C   14.096255323928 -4.389827717430  9.716718520857
C   14.167056927297 -5.666345108931  10.542879717674
C   15.220552848358 -6.633946036815  10.020537166295
O   15.080579939285 -6.872706370088  8.625830167161
C   16.183221205455 -7.596748124775  8.087800571511
C   16.026932863053 -7.850927189238  6.598128789532
C   17.252412202692 -8.489325115702  5.952530206202
C   17.498690293627 -9.916278210131  6.417889627599
O   17.728597151225 -10.032047775434  7.813015985034
C   18.989652216253 -9.511376899693  8.218811749116
C   19.295577777101 -9.839070791523  9.672457178506
C   20.643591272686 -9.296373853317  10.145589830152
C   20.687679151357 -7.777244495054  10.221449005730
O   21.948647980911 -7.290261524511  10.672920872331
C   21.990890079278 -5.866499971875  10.687240849187
C   23.365508424997 -5.317861853314  11.046293444421
C   23.415408941584 -3.791670379234  11.047462165801
C   23.249081024907 -3.189415290645  9.659983516574
O   23.129584600165 -1.770579314638  9.693046495716
C   23.439072090512 -1.162226948643  8.447270594314
C   22.610817475779 -1.694629936751  7.287190787481
C   22.896458376322 -0.990404544129  5.966076410918
C   22.034327121022 -1.525031455700  4.835055309785
O   22.322943714095 -0.887463867989  3.597916498758
C   21.663875521173 -1.487580776307  2.494844838976
C   20.149060794989 -1.402678090409  2.587765835247
C   19.676897755430  0.022390580683  2.821699305360
C   18.163737057641  0.108992247062  2.926525579468
O   17.529322235965 -0.345820165462  1.737336368761
C   16.121178005229 -0.156806963654  1.744491510269
C   15.379993011447 -1.141241201041  2.635975243349
C   15.489522269008 -2.583400929157  2.149638472968
C   16.914644494560 -3.106438674138  2.059525115352
O   16.944116665561 -4.515715015059  1.859831444903
C   18.263473375953 -5.029568729316  1.701176470329
C   18.289621120823 -6.544957429349  1.831701056665
C   19.686260213664 -7.141740338333  1.719318981612
C   19.663744778847 -8.645180596036  1.945297603273
O   18.895564750211 -9.308757060461  0.947500040733
C   18.410093800200 -10.581136887997  1.362788998519
C   17.106902506683 -10.485232056121  2.143046983737
C   16.536128150208 -11.846202242232  2.519252561884
C   15.201914554997 -11.722817025429  3.238531873432
O   15.321419411695 -11.012574639513  4.463247113278
C   14.066168304604 -10.789481777911  5.098073877425
C   13.286410513791 -9.634382476073  4.486524265056
C   12.040198759076 -9.272393001020  5.289084980243
C   11.266761365731 -8.112393241905  4.682884161810
O   10.107131644469 -7.788806080160  5.441799069584
C   9.472944840467 -6.592529528583  5.007853082963
C   8.671388811532 -6.758709758904  3.722367249519
C   8.160246041559 -5.435002136411  3.154849629130
C   7.242933349787 -4.671766671539  4.099346187222
O   6.921333548125 -3.381057325810  3.590210952985
C   6.121680823887 -2.621634536811  4.486259288720
C   5.878005853172 -1.202847364871  3.989249034565
C   7.172559711100 -0.416706533314  3.809763840366
C   7.927618484146 -0.846255757765  2.559755121351
O   7.202038328660 -0.535893836339  1.386347315270
H   24.282596024885 -11.398101750777  14.605464424189
H   26.078929525124 -12.708867262575  16.363752250937
H   26.197248891541 -10.971235168614  16.136779157886
H   23.816135396112 -10.687930746631  16.819234981250
H   23.612448280956 -12.412233098519  16.918248234792
H   25.501280333563 -10.799085946385  18.699747616023
H   25.267300319205 -12.528532064389  18.786140773402
H   23.830731890483 -11.376791477963  20.501208196401
H   23.079659653034 -10.427537021880  19.228929670746
H   22.140850867744 -13.864573919787  20.579647442728
H   23.852193644077 -13.586712422772  20.311274079157
H   23.220174740265 -15.710249257841  19.235263939205
H   23.634683821617 -14.551714183485  17.995567346449
H   21.519474946097 -15.896339838491  17.507189059232
H   20.758137982213 -15.127739858485  18.873261941036
H   21.844328084947 -13.678359982343  16.412076582844
H   21.063385361235 -12.892906830552  17.798214652060
H   20.339687764042 -13.428234315616  14.723978585312
H   18.629974416476 -13.561913312428  15.076561617005
H   19.026677259270 -11.568625014322  16.753965969959
H   18.836356834889 -11.213956539199  15.056945654578
H   21.567000902107 -11.441775534341  16.418600663042
H   20.738368652477 -9.948444171883  16.134481976992
H   21.624624945435 -11.872708259125  13.921416069069
H   20.788048590968 -10.344518753325  13.677121317198
H   22.318700758451 -9.009137029202  12.756352247553
H   23.078987573930 -10.555016612489  12.367927308884
H   25.219979304923 -9.735294815866  13.421042572121
H   24.438510806792 -8.234633478166  13.828616870965
H   24.008156986555 -7.854846904864  11.330738185614
H   24.946081896858 -9.270078945076  10.982895322754
H   26.036183416380 -6.879512327798  12.566155343063
H   26.968423398553 -8.257797970397  11.989613347639
H   27.772089678240 -5.757871138823  11.443138600872
H   28.375774182720 -7.132840929465  10.520122637456
H   27.094190444735 -4.611006825507  9.347852161220
H   27.557316416500 -5.996154642010  8.400210930189
H   29.467664991022 -4.279037680317  10.067634199911
H   29.954622975247 -5.696528309502  9.165732832811
H   29.148558854865 -4.585780277892  7.042415847225
H   30.419993800089 -3.650016094049  7.825362576866
H   29.387597169114 -2.084546152251  6.278364411286
H   28.005623585209 -1.217392903965  6.937616822034
H   27.272310538520 -2.403834849654  4.876682641656
H   27.893060694904 -3.914736107738  5.486082366141
H   26.317423009866 -3.720194363995  7.468201613744
H   25.627345801602 -2.300970431096  6.749480577860
H   24.824161746517 -3.624391123361  4.802696975955
H   25.690207040750 -5.043521056831  5.392102631748
H   23.804750382844 -6.135942681968  5.245357472828
H   22.642692508804 -4.835241458408  5.026647824097
H   22.813424725584 -6.675157072588  7.471132649737
H   21.637676102507 -5.399292116641  7.273283342877
H   20.821786188572 -7.778488145994  6.686028422426
H   21.859307908922 -7.708253079729  5.279545681272
H   20.610573692418 -5.601655709707  4.548198660401
H   19.555323530832 -7.008567375281  4.665954052359
H   18.786938661530 -4.196180023157  4.800408813066
H   17.717477391421 -5.591062799667  4.929461863388
H   18.120144956551 -3.434611086882  7.054911530063
H   17.106947937770 -4.837528887170  7.268199064047
H   15.843984330429 -2.705040972989  6.629176136987
H   16.637953248389 -2.747527460984  5.080779981256
H   15.583031742539 -5.009917115990  4.644300354489
H   14.758646290386 -4.887047287152  6.202511541571
H   12.448129292420 -4.555230339258  5.374998016895
H   13.399744003664 -5.411356341748  4.158457067265
H   12.732082737683 -3.755011027781  2.433142795561
H   11.324341803141 -4.541365609985  3.099634439640
H   12.358544983672 -1.867153430069  4.129425375399
H   11.188941075997 -1.965898691432  2.832105964826
H   9.565113726098 -3.110972596453  4.333768488769
H   10.093283555489 -1.592105030923  5.053537299304
H   9.091914606139 -2.506944727038  6.722050196321
H   9.337792934927 -4.229613731104  6.970858981697
H   11.200867821166 -3.741217680456  8.562364330074
H   9.707132817529 -3.006939368629  9.103994434031
H   11.415594672727 -1.304732939043  9.372781825825
H   10.483408661605 -0.826272237246  7.980354385659
H   12.249779669444 -1.886837119531  6.486848956987
H   13.198056817112 -2.233724253328  7.923481296568
H   14.116437779755 -0.686228818243  5.779332269492
H   14.930499606416 -0.872607916561  7.334121059701
H   14.911412196994  1.599020007989  7.653028312479
H   14.087591016858  1.809149880428  6.133118591155
H   16.059919499643  0.892288129232  4.898776007765
H   16.519601293581  2.259886217098  5.867265541056
H   17.009564583279 -0.688554782837  6.522104338290
H   17.241918874546  0.584502326644  7.699777934107
H   19.722759554821  2.202346120218  5.785005172818
H   18.429221318932  2.451605364085  6.944770648192
H   20.949955351807  0.773247314601  7.389731106997
H   20.645021598056  2.332689827084  8.109877930655
H   18.633445845806  1.340990205355  9.302854309274
H   19.015737070491 -0.205676546437  8.598007371915
H   21.272625739395 -0.144109715158  9.775930609038
H   20.805887362099  1.374836938243  10.513640118352
H   21.192392069599 -1.694382644060  11.299944323595
H   19.714797426513 -1.993583571701  12.203177959103
H   19.962726884449 -2.071303794510  9.155322720782
H   19.855677496937 -3.483841443190  10.165386186066
H   17.656413185102 -2.617770920412  9.032121675235
H   17.668600236327 -1.348181570158  10.222844639093
H   17.589307697511 -3.022299059866  12.067126506534
H   17.687554851991 -4.336143131890  10.909549829701
H   15.360758372026 -2.738453203743  9.081189176539
H   16.176753298263 -4.297444109799  9.175165537680
H   13.336798634196 -3.715752630048  10.131287102760
H   13.766069200981 -4.634869809459  8.699218897994
H   14.376451660488 -5.415812867196  11.590326533112
H   13.188802806644 -6.163046303737  10.539503919833
H   16.226488807301 -6.236892657792  10.193754290042
H   15.169569293798 -7.600710811078  10.535452008452
H   16.272387742025 -8.541955459779  8.635112825970
H   17.093490578367 -7.020219452873  8.284710982020
H   15.144513613643 -8.476976855744  6.435118943377
H   15.795917306884 -6.899778972033  6.107140362042
H   17.147134247260 -8.471270296738  4.860366901971
H   18.131210859980 -7.875954682531  6.172523394396
H   18.346070268210 -10.374242289174  5.893985147758
H   16.627718892630 -10.543194871984  6.197985331930
H   19.762404077433 -9.926757172603  7.562841661639
H   18.978693884675 -8.429372005023  8.060949030442
H   18.492323709141 -9.445025325966  10.305148642320
H   19.253431961182 -10.927650002635  9.799719901723
H   21.442177901810 -9.645787441741  9.481661795416
H   20.888943752845 -9.705500586052  11.131771183626
H   19.915468435596 -7.402640209294  10.902524382459
H   20.488965837283 -7.334348540606  9.239982705909
H   21.680826325571 -5.515738419571  9.698324673013
H   21.237380260253 -5.513970711146  11.400339923541
H   24.108694204359 -5.713275166142  10.344114412967
H   23.653498573423 -5.706477848588  12.030215519098
H   24.358758700950 -3.433297952526  11.477197817288
H   22.633000184591 -3.401239828742  11.706573911019
H   22.349260339763 -3.577655573804  9.173353427800
H   24.099085684658 -3.459818978259  9.022761180108
H   24.510604038640 -1.296503277486  8.269702055940
H   23.286012554148 -0.084178119416  8.567575589151
H   21.546633165153 -1.607127572465  7.530140734404
H   22.788313899889 -2.768329221056  7.165295664180
H   22.738794734503  0.089080053339  6.065053030704
H   23.952427984102 -1.099084757864  5.696732376277
H   20.974351793201 -1.376845987798  5.066900055467
H   22.189085124125 -2.601554863293  4.709989221669
H   22.020464797416 -0.959840443374  1.602812543791
H   22.012078009299 -2.523611878622  2.407382789913
H   19.785897173953 -2.045495037753  3.397270106945
H   19.686725210746 -1.798052911744  1.675152175871
H   20.020281135119  0.658537836442  1.998058178881
H   20.149976515172  0.425804859832  3.725581853005
H   17.809836506757 -0.503235519076  3.761865351212
H   17.841066984004  1.139365941605  3.115622089305
H   15.786167995531 -0.263357052062  0.706542502776
H   15.920018512162  0.882655569736  2.029615096812
H   14.322809586046 -0.853620822810  2.708918768080
H   15.766142595754 -1.073312416962  3.657261318216
H   15.007297618579 -2.690348117715  1.171318963417
H   14.931763123049 -3.246354318581  2.819608380318
H   17.455626053259 -2.624936562083  1.237437392827
H   17.464049249210 -2.887735946521  2.980070584060
H   18.911834451147 -4.569157914539  2.454007234710
H   18.635850900798 -4.711953596609  0.721097507769
H   17.633836908128 -6.989324486279  1.074279563904
H   17.840298860667 -6.826971555140  2.790261058617
H   20.096802133317 -6.930123450068  0.725623154225
H   20.363604650300 -6.652986874042  2.429163477055
H   20.672890691074 -9.073477467672  1.923686729884
H   19.238870990536 -8.875127906819  2.928149990072
H   18.265126682792 -11.176072753249  0.453866910822
H   19.190082461822 -11.086540676540  1.943060882276
H   17.251215791922 -9.885372790091  3.046849093997
H   16.375701484650 -9.926598782528  1.547760669941
H   17.247428699653 -12.375616761879  3.163316520853
H   16.429924361945 -12.465077129278  1.619674961029
H   14.779698148612 -12.709076430137  3.464748857790
H   14.479454472390 -11.198151877750  2.605392203712
H   13.487329521980 -11.719364614129  5.073710580350
H   14.272984607155 -10.590736722396  6.155419176869
H   13.004420915661 -9.874716296061  3.455933714373
H   13.942497553068 -8.760572119150  4.403810163554
H   11.379934587391 -10.142841523527  5.373035437531
H   12.315155013425 -9.020980440058  6.319842847581
H   10.958394920279 -8.352578405270  3.660595701722
H   11.901601148761 -7.222101641608  4.626705829345
H   10.237455583615 -5.815553014249  4.903437921071
H   8.821577968858 -6.273993811399  5.828685228320
H   7.832351541632 -7.438507713443  3.908906149968
H   9.288800780683 -7.265342642484  2.972541893066
H   7.635458459997 -5.597321988393  2.205643329208
H   9.010073514300 -4.793911842802  2.898981479252
H   7.716620083462 -4.534672884783  5.076180706948
H   6.310241767466 -5.220795709204  4.268911657761
H   6.631298801440 -2.600416964860  5.455917374075
H   5.178032046275 -3.161498737091  4.628483390718
H   5.355492443776 -1.243681012619  3.026554919833
H   5.203985655045 -0.678761925607  4.679709254453
H   6.954561669291  0.655180081481  3.725803401190
H   7.799673133566 -0.528495869420  4.702513942978
H   8.103997537175 -1.928929065517  2.581472328715
H   8.908708483093 -0.356147361928  2.503669578227
H   7.662657002655 -0.875171091674  0.584111191287
