45
pair_id=pair_fd001194f5aff44100ff start=3 nco_site=2 oh_site=1 attack_angle_deg=105.000000
O   6.071138798300  2.480874245000 -0.539966886600
C   5.281563264000  1.703290642200 -0.203729312400
N   4.583194840700  0.895553337000  0.323028101100
C   3.469566272400  0.097992287700  0.217823463600
C   3.141003666300 -0.720825069600  1.291776942100
C   2.027239290200 -1.535897111400  1.217504870200
C   1.230376574900 -1.552900220000  0.080976745700
C   0.000129982500 -2.417918638600 -0.002577497200
C  -1.230253681400 -1.553071685200 -0.084299228600
C  -2.021435998300 -1.526209840700 -1.224619472200
C  -3.134787785500 -0.710465627800 -1.297435226200
C  -3.468763238200  0.098981255200 -0.218056518800
N  -4.581846364100  0.897438299100 -0.321975352000
C  -5.282652338400  1.701065266500  0.207899688400
O  -6.073694902800  2.476057311700  0.546553031600
C  -2.680498724400  0.084975519400  0.931153113200
C  -1.572915706700 -0.735626567500  0.987803746500
C   1.567638803400 -0.726117648500 -0.985674162700
C   2.675451036000  0.094047662700 -0.927432521900
H   3.761402694000 -0.710428411900  2.174324307200
H   1.779230559000 -2.170944736200  2.055913696000
H   0.058433977900 -3.056457871800 -0.886664495400
H  -0.057740878700 -3.058561817600  0.879976911700
H  -1.769229849800 -2.154027086400 -2.067217719300
H  -3.750781892300 -0.692421148900 -2.182945547900
H  -2.943609239700  0.716629811900  1.766859046600
H  -0.960209384700 -0.742612630800  1.877475508100
H   0.950329509800 -0.725172817000 -1.872181069100
H   2.934211927200  0.733133578500 -1.758835180200
O  -6.015817857567  1.002179444985 -2.294904125324
C  -6.399543992975  0.636394709654 -3.604828296631
C  -6.152795996900 -0.837930782215 -3.933699771137
C  -4.681629740152 -1.218030523455 -4.126673315178
C  -3.836863760756 -1.205970330365 -2.844434926580
O  -3.394528988613  0.067041575177 -2.463709882032
H  -6.500588248253  0.457629936465 -1.663885263813
H  -7.463949695037  0.866325475060 -3.752624073922
H  -5.813645533546  1.276874689852 -4.267867378105
H  -6.689241811047 -1.060367028787 -4.858413332759
H  -6.587331942942 -1.457978545196 -3.142905913028
H  -4.646014816569 -2.226961625169 -4.542507449922
H  -4.220053133911 -0.540232884696 -4.847184132919
H  -2.927855417853 -1.790744199161 -3.011548739063
H  -4.402164166098 -1.685152727948 -2.028185817632
H  -4.176862820364  0.627632571149 -2.323345651413
