154
pair_id=pair_d0f7348c2ab6da21546e start=4 nco_site=2 oh_site=2 attack_angle_deg=105.000000
C   0.284581330700 -2.856296821600 -1.075228802200
C   0.162525852300 -1.597457455400 -0.204947230400
C   0.845005092100 -1.904537770700  1.131145514700
C  -1.328669048700 -1.291252660800 -0.005722197300
C  -1.570475083400  0.087872243400  0.610820554000
C  -0.957110448900  1.181183157800 -0.269036073900
C   0.549683356000  0.994266183800 -0.497159448500
C   1.002261202900  1.956948628000 -1.604047402300
C   1.307902346100  1.391971275300  0.789954740500
N   2.703572888200  1.171113099200  0.732383851000
C   3.569168631800  0.422084370500  0.420855653800
O   4.549802891200 -0.154504117100  0.185714036600
C   0.831914196600 -0.441038993400 -0.968894226600
N  -2.963431143600  0.322177330700  0.785377568700
C  -4.013442667400  0.395831636900  0.235484889300
O  -5.116375984200  0.510373170000 -0.104212560000
H  -0.200973184600 -3.701335647600 -0.592771820900
H  -0.180392270100 -2.708228461400 -2.047427195000
H   1.331183276900 -3.106678504200 -1.231501354200
H   0.669336818000 -1.138529666000  1.878580217000
H   1.919144116400 -2.004976794700  0.992809095200
H   0.466878515000 -2.844074041600  1.529162011100
H  -1.834031280800 -1.321260360500 -0.974603031900
H  -1.780892848400 -2.056062502900  0.628522771700
H  -1.151102782700  0.129873374500  1.620567689400
H  -1.463600897200  1.156635133100 -1.237165534300
H  -1.148305840500  2.158375955300  0.179489575800
H   0.772454559600  2.985326617500 -1.333946347600
H   2.075584442100  1.874781849200 -1.759270064200
H   0.502011787900  1.732699420800 -2.543044673500
H   0.909588571900  0.871441133300  1.663883790100
H   1.176321145700  2.466024633200  0.954683369000
H   0.487257832900 -0.500634134700 -2.004285460000
H   1.911225245100 -0.607683746400 -0.987976068100
O  -34.994953444189 -18.457610889379 -13.308979318890
C  -33.743500876854 -18.401717121216 -12.638338065347
C  -33.516152794034 -17.007032954822 -12.070550373514
C  -33.625763257336 -15.875797763797 -13.099871644764
C  -32.714622264673 -16.034165727162 -14.312532338411
O  -31.369048956799 -16.215902067496 -13.875520436111
C  -30.469383423720 -16.343592737656 -14.975355800750
C  -29.060725788672 -16.527858824407 -14.423791916585
C  -28.038885440434 -16.714747652742 -15.545903398537
C  -26.623826447517 -16.903660118072 -15.008751398722
O  -26.210148234289 -15.708327791806 -14.351507534058
C  -24.892841140583 -15.825054415298 -13.817773370960
C  -24.517856109661 -14.527204265110 -13.109819658983
C  -24.501386551015 -13.330282868728 -14.067173364445
C  -24.115703383637 -12.033436729252 -13.357092207083
O  -22.838112489920 -12.117243824069 -12.726816163828
C  -21.748044088545 -11.938992860402 -13.630181739335
C  -20.453900380475 -12.030545798874 -12.828063581180
C  -19.196408094315 -11.937827503279 -13.687677327725
C  -19.004563568603 -10.574067840131 -14.343710055931
O  -17.770014749877 -10.603364014216 -15.059639426432
C  -17.504866317461 -9.405030954267 -15.785980425977
C  -17.095968817209 -8.234558113699 -14.892001192066
C  -15.923647438386 -8.586966731679 -13.970396851692
C  -15.455631434653 -7.388716114838 -13.149371367106
O  -16.525126579763 -6.940450354688 -12.318940059440
C  -16.169318408784 -5.833372093875 -11.491904781076
C  -15.507482811828 -6.311969257823 -10.202488455243
C  -15.201661669376 -5.147633158605 -9.266837948525
C  -14.558810338521 -5.621964091351 -7.969398041825
O  -14.287439100455 -4.475794041773 -7.165202368393
C  -13.689654522434 -4.828445363276 -5.921554508332
C  -13.402051936923 -3.560295293114 -5.122632056723
C  -12.531751760790 -2.531713555677 -5.850765134179
C  -11.153700661023 -3.064254505353 -6.237401306434
O  -10.362972034215 -2.028872306452 -6.822275952938
C  -9.636515523998 -1.243740289708 -5.878654018286
C  -8.303200949821 -1.895225471764 -5.513138970144
C  -7.413517210106 -2.116129314518 -6.741635261763
C  -6.082619512347 -2.772694844309 -6.377981425128
O  -5.356535747011 -2.032529367360 -5.398352412476
C  -4.670200149267 -0.904321106850 -5.933888511476
C  -3.881210615050 -0.225088076430 -4.816536067403
C  -2.790576604942 -1.137930374272 -4.242794274381
C  -1.915787411548 -0.430159543747 -3.213133775299
O  -2.638805753036 -0.145457483268 -2.024466314168
H  -35.120560289998 -19.378452751783 -13.595343169379
H  -33.752379445446 -19.135976565535 -11.826183075873
H  -32.953703430582 -18.681183904031 -13.342134187518
H  -32.536069087847 -16.974178788184 -11.580624663159
H  -34.265628269882 -16.816291119477 -11.292194577748
H  -33.370551913971 -14.939737926834 -12.587363589253
H  -34.663072559893 -15.777330120837 -13.440365295168
H  -33.025275370952 -16.890720512621 -14.920916323813
H  -32.778991996281 -15.132206417444 -14.932275501066
H  -30.756185886031 -17.211093937570 -15.580822614249
H  -30.518123216553 -15.441780185721 -15.596404760117
H  -29.044378452429 -17.393658958681 -13.749964723462
H  -28.801867632805 -15.660557806438 -13.804065586068
H  -28.063380603920 -15.834495399111 -16.199757451287
H  -28.312193864019 -17.587158564446 -16.150586330039
H  -26.590812614151 -17.746062565327 -14.308250139434
H  -25.943299820871 -17.110607299716 -15.842492069643
H  -24.863523923858 -16.652072183170 -13.099204397491
H  -24.183556130312 -16.035107367400 -14.626637804261
H  -25.243316597425 -14.329525501669 -12.311305114176
H  -23.534378256557 -14.651222751670 -12.642807365596
H  -25.490199007843 -13.198095574852 -14.521357378986
H  -23.798727780252 -13.536439875343 -14.881917172436
H  -24.141800461675 -11.186244493662 -14.052329040056
H  -24.846807331946 -11.822963631643 -12.568737836353
H  -21.837356106870 -10.958487651855 -14.108922857119
H  -21.764887747263 -12.717918451717 -14.398894398174
H  -20.443957221747 -11.251354217549 -12.055685669934
H  -20.443570290755 -12.983333683298 -12.283347151382
H  -19.205916979223 -12.718552605780 -14.458558043910
H  -18.320590900487 -12.154232793443 -13.062566949352
H  -18.975391127762 -9.795159311218 -13.575363704649
H  -19.820026742412 -10.362199047275 -15.042675384373
H  -18.372412413652 -9.138718725842 -16.400962773032
H  -16.683908059008 -9.630517479538 -16.475675708107
H  -16.826295449493 -7.383190690478 -15.528191000007
H  -17.952133548059 -7.918099579940 -14.286172395698
H  -15.083995767156 -8.963430258434 -14.565842684297
H  -16.231483163235 -9.386632744267 -13.286201396736
H  -14.601924517617 -7.688415640028 -12.533104798872
H  -15.141241873568 -6.576163957421 -13.814401518752
H  -15.532014293936 -5.128607834665 -12.038915529444
H  -17.100348016938 -5.309868999448 -11.248566713894
H  -14.583477775403 -6.854422078398 -10.432412208692
H  -16.165527368335 -7.036238054237 -9.706441957260
H  -16.120178119930 -4.594363343816 -9.034193338164
H  -14.535709328122 -4.429191028278 -9.761169540184
H  -13.621884032600 -6.150109068176 -8.180430265352
H  -15.237058965277 -6.295131082000 -7.432679788644
H  -14.378889544608 -5.464835726318 -5.354514388427
H  -12.766933656570 -5.392554249007 -6.096307460545
H  -12.932264724154 -3.832908396602 -4.170449162857
H  -14.356052110083 -3.074177738872 -4.883084225477
H  -12.422934758891 -1.651293911075 -5.206599122562
H  -13.042183157886 -2.166491940693 -6.750605877954
H  -10.642518178871 -3.514433218664 -5.379663234188
H  -11.258812878560 -3.840835734231 -7.001568010740
H  -10.233095491192 -1.056651366788 -4.979225551723
H  -9.447555819048 -0.271947488427 -6.347718633634
H  -8.480143316032 -2.861650155758 -5.028041054562
H  -7.789713749136 -1.255284413663 -4.786508779130
H  -7.234520694255 -1.151289709946 -7.228824063396
H  -7.927802044845 -2.753141800248 -7.470428389156
H  -6.275946941267 -3.762181347104 -5.949102699593
H  -5.466866850500 -2.926799841881 -7.271748130008
H  -5.391740367855 -0.190639247584 -6.344027915932
H  -3.993746111424 -1.223279734258 -6.735029534603
H  -4.574088708935  0.059448808582 -4.016331251820
H  -3.426927742649  0.692492649691 -5.207637374395
H  -2.152676170040 -1.494962534919 -5.059797006272
H  -3.258364811977 -2.013569331403 -3.777556540544
H  -1.504467244303  0.504031238790 -3.609022236517
H  -1.076019307336 -1.075867892425 -2.937812292590
H  -3.365087709581  0.458329770612 -2.251031630492
