60
pair_id=pair_3bc7f7b5c70bdd45dac4 start=1 nco_site=1 oh_site=1 attack_angle_deg=105.000000
O   6.618264355100  0.143538449800 -1.688772552200
C   5.816657291800  0.056693374400 -0.854090093000
N   5.168305460200 -0.077203069200  0.131054582300
C   3.854011754200 -0.052937900900  0.673130753600
C   3.208913872000  1.324955326500  0.505592565300
C   1.816479531100  1.330099716500  1.127972203900
C   0.915975883400  0.265277561500  0.494741769900
C   1.575300343600 -1.106616265900  0.646848687500
C   2.969563288100 -1.121854323200  0.026592232800
C  -0.471566668400  0.318794788400  1.144508880200
C  -1.531720426600 -0.614503699000  0.548593741600
C  -2.815889084600 -0.520079738200  1.377955627300
C  -3.901240110600 -1.443307734100  0.834788234600
C  -4.215431931400 -1.131031945700 -0.633160601400
C  -2.931460693800 -1.192021334500 -1.468816570500
C  -1.850234206100 -0.273002050300 -0.907919417400
N  -4.855865099800  0.132195613900 -0.765308668800
C  -4.715970678600  1.296887398100 -0.579600605500
O  -4.781695726700  2.452432031500 -0.482541701300
H   3.969545924300 -0.273189232200  1.741047915900
H   3.836149805100  2.083749329600  0.977052012800
H   3.142337409400  1.557949739500 -0.559917029900
H   1.898918572600  1.140301456600  2.200766512800
H   1.366995500400  2.316357678000  0.998420659100
H   0.822792117200  0.492510003800 -0.571700099600
H   1.645879490100 -1.356204628000  1.708123695400
H   0.969045823200 -1.872128855900  0.161264418100
H   2.901208685400 -0.921631752800 -1.045633449400
H   3.428518868200 -2.103936366600  0.155965136700
H  -0.843348377200  1.344547930400  1.077407088700
H  -0.362537387200  0.081373795700  2.206152281500
H  -1.171999744600 -1.647583393000  0.596726238500
H  -2.605958818300 -0.783409642800  2.416616017800
H  -3.176915567100  0.511493151300  1.366280192100
H  -4.810035213800 -1.341777785600  1.430961935200
H  -3.567918939900 -2.481073930500  0.896756635300
H  -4.936516961100 -1.862698729600 -1.016941204600
H  -2.574708747800 -2.223980911300 -1.464940239600
H  -3.156569269900 -0.914536712900 -2.500403691300
H  -0.955847295700 -0.371101252100 -1.524329068000
H  -2.184966647800  0.765627050600 -0.969067221100
C   1.214306619868 -1.320257230554 -1.864553987636
C   1.471436880135 -0.479700032517 -3.118551626532
C   0.144637827665 -0.086522344483 -3.768069203344
C   2.245250534577  0.798088912156 -2.730712118720
O   3.465896388350  0.544692575450 -2.089314750537
C   2.290283503993 -1.287192323714 -4.146834413616
O   3.542496801036 -1.732924461856 -3.673006507223
H   0.484675459042 -0.823126822020 -1.230192401097
H   2.129493473768 -1.433882618688 -1.286298852247
H   0.827175351061 -2.303354159102 -2.127984729479
H  -0.445604771557  0.519130990569 -3.085011445980
H   0.315569767611  0.488170892187 -4.675545948860
H  -0.429585443546 -0.973660686436 -4.025699837242
H   1.651797739995  1.386773631991 -2.025502377937
H   2.404449264596  1.405134649373 -3.635852665643
H   3.963926661238 -0.068771576786 -2.652090623650
H   1.691916821023 -2.141316024222 -4.494394858713
H   2.517433791393 -0.658309876726 -5.011984021431
H   3.390318319990 -2.341567661198 -2.940944880303
