395
pair_id=pair_d0340fb5d58cddfcd8e1 start=3 nco_site=2 oh_site=1 attack_angle_deg=105.000000
O   6.618264355100  0.143538449800 -1.688772552200
C   5.816657291800  0.056693374400 -0.854090093000
N   5.168305460200 -0.077203069200  0.131054582300
C   3.854011754200 -0.052937900900  0.673130753600
C   3.208913872000  1.324955326500  0.505592565300
C   1.816479531100  1.330099716500  1.127972203900
C   0.915975883400  0.265277561500  0.494741769900
C   1.575300343600 -1.106616265900  0.646848687500
C   2.969563288100 -1.121854323200  0.026592232800
C  -0.471566668400  0.318794788400  1.144508880200
C  -1.531720426600 -0.614503699000  0.548593741600
C  -2.815889084600 -0.520079738200  1.377955627300
C  -3.901240110600 -1.443307734100  0.834788234600
C  -4.215431931400 -1.131031945700 -0.633160601400
C  -2.931460693800 -1.192021334500 -1.468816570500
C  -1.850234206100 -0.273002050300 -0.907919417400
N  -4.855865099800  0.132195613900 -0.765308668800
C  -4.715970678600  1.296887398100 -0.579600605500
O  -4.781695726700  2.452432031500 -0.482541701300
H   3.969545924300 -0.273189232200  1.741047915900
H   3.836149805100  2.083749329600  0.977052012800
H   3.142337409400  1.557949739500 -0.559917029900
H   1.898918572600  1.140301456600  2.200766512800
H   1.366995500400  2.316357678000  0.998420659100
H   0.822792117200  0.492510003800 -0.571700099600
H   1.645879490100 -1.356204628000  1.708123695400
H   0.969045823200 -1.872128855900  0.161264418100
H   2.901208685400 -0.921631752800 -1.045633449400
H   3.428518868200 -2.103936366600  0.155965136700
H  -0.843348377200  1.344547930400  1.077407088700
H  -0.362537387200  0.081373795700  2.206152281500
H  -1.171999744600 -1.647583393000  0.596726238500
H  -2.605958818300 -0.783409642800  2.416616017800
H  -3.176915567100  0.511493151300  1.366280192100
H  -4.810035213800 -1.341777785600  1.430961935200
H  -3.567918939900 -2.481073930500  0.896756635300
H  -4.936516961100 -1.862698729600 -1.016941204600
H  -2.574708747800 -2.223980911300 -1.464940239600
H  -3.156569269900 -0.914536712900 -2.500403691300
H  -0.955847295700 -0.371101252100 -1.524329068000
H  -2.184966647800  0.765627050600 -0.969067221100
O  -7.084738965699  0.382636084659  0.338594002361
C  -8.319023828581 -0.093749285408  0.817034089488
C  -8.964851942901 -1.137918303617 -0.092695531020
C  -8.264161867357 -2.507070611919 -0.101780572245
C  -7.068893925080 -2.619810807900 -1.050159860661
O  -5.889876715187 -1.951190739780 -0.614913289149
C  -5.164345607302 -2.678224265254  0.369474326772
C  -4.086450463981 -1.826814513439  1.023530224083
C  -3.081558321274 -1.298972079282  0.009134882539
C  -1.983382236755 -0.456999656522  0.638889917945
O  -1.082439407557  0.075945529481 -0.322915995035
C  -0.206439181103 -0.908710726523 -0.876123939194
C  -0.137612357245 -0.849328765857 -2.395180753273
C   0.822395463562 -1.888709056935 -2.969757341756
C   1.151865355278 -1.666769590277 -4.439302663893
O   0.063117106514 -1.912183063421 -5.322238346117
C   0.456793017221 -1.705029995689 -6.678039976722
C  -0.636505717503 -2.010368632415 -7.692944884023
C  -0.233595512917 -1.592414831080 -9.102637689561
C  -1.365296554040 -1.713184861433 -10.110445482083
O  -1.834960557712 -3.049010853436 -10.253308431415
C  -2.597754612885 -3.226371360441 -11.443500680990
C  -3.345147555960 -4.552056908302 -11.465560489092
C  -4.458686802961 -4.603273081858 -10.425361908765
C  -3.942467909681 -4.527560979514 -8.998699483093
O  -4.998745762778 -4.499681143726 -8.046220421362
C  -4.516831984614 -4.317784197649 -6.719679837329
C  -5.645383100593 -4.072682829754 -5.731202656645
C  -5.155327248521 -3.809722968023 -4.311292490159
C  -4.186179957548 -2.637602347385 -4.262794198349
O  -4.652079622622 -1.522380063157 -5.005766648450
C  -5.662378197598 -0.767698998867 -4.353735938306
C  -5.137835568572 -0.074113086485 -3.105721474659
C  -5.974395373287  1.108807858787 -2.638399544490
C  -5.202478446739  1.904857286094 -1.597095811053
O  -3.911417758149  2.237306443091 -2.094325562448
C  -3.081121567502  2.876494173627 -1.132560125403
C  -1.694066328410  3.147561252640 -1.693869301911
C  -0.759125696525  3.845403916880 -0.711297032632
C  -0.367623291586  2.968852969723  0.467643653948
O   0.622174611318  3.592880520782  1.277016324621
C   0.994476362023  2.806259860209  2.402333136533
C   2.266114407926  3.339923438611  3.041435204808
C   2.119518813650  4.784793933783  3.495570832970
C   3.466712051383  5.385340300913  3.868305885506
O   4.345896724039  5.356268484614  2.749885604256
C   5.705934302626  5.627349567635  3.070030241168
C   6.597627865766  5.300687974370  1.881798111365
C   6.384730810892  3.858934943009  1.437966497923
C   7.064774402849  3.514884673893  0.123735420743
O   6.712726304827  2.210010774307 -0.315632568506
C   7.302654861850  1.847541013099 -1.555147534760
C   6.950961853116  2.787935806644 -2.706323199032
C   7.135892062731  2.151681724896 -4.081149893439
C   6.028344560364  1.151969399887 -4.375037396087
O   4.761403459525  1.800010437520 -4.488759392987
C   3.665120665141  0.973258939284 -4.110368293008
C   3.202692027508  1.237164753073 -2.685215070133
C   2.759376111651  2.680335286723 -2.463778045758
C   1.753837421068  3.150032930176 -3.507066882504
O   0.638179421980  2.270386943319 -3.615432247639
C  -0.030298205891  2.387681949013 -4.870264666914
C  -1.198668864001  1.419707961758 -4.993660423360
C  -1.758539887455  1.332732534186 -6.407798031348
C  -2.961157685137  0.398484896660 -6.506006273988
O  -3.137272428397 -0.121338543376 -7.821559889032
C  -4.448472177404 -0.625256585258 -8.041217773993
C  -5.384820906284  0.473548732947 -8.510397888664
C  -4.827888779596  1.135564610440 -9.761404972593
C  -5.674371855747  2.285911405931 -10.277219245226
O  -5.097442742538  2.880778970059 -11.435820721997
C  -5.935914071603  3.845713456573 -12.054092586423
C  -7.220701229978  3.246332081297 -12.611283197999
C  -6.935371170877  2.001213534494 -13.442969670772
C  -8.186895123528  1.212441742594 -13.800084866016
O  -7.941808205045  0.088948023993 -14.636278745596
C  -6.998144728311 -0.823603833907 -14.088328477357
C  -6.907036726033 -2.116153505361 -14.883495059799
C  -5.807258753544 -3.051442874700 -14.385808692994
C  -4.424499182099 -2.420803013777 -14.490800692895
O  -4.258614367607 -1.346464507829 -13.570641561520
C  -3.127668419608 -0.533824159925 -13.870114885592
C  -2.960393292252  0.599869776907 -12.870802170388
C  -1.739294630867  1.465378599517 -13.152716014513
C  -1.571080258995  2.589495743970 -12.142747102765
O  -0.396423903093  3.365782145444 -12.376878201501
C  -0.378933144300  4.545694080428 -11.585565787556
C   0.955846710587  5.279010076641 -11.595362191020
C   1.412746080104  5.689919640296 -12.990358032425
C   1.967897671514  4.516620435945 -13.779666416503
O   3.155155365672  3.990832252391 -13.189186140685
C   3.597563412521  2.777394191378 -13.802563805884
C   3.328625145048  1.555199009456 -12.933161670100
C   1.888427164766  1.508240751124 -12.457039759428
C   1.571281316432  0.291128615603 -11.601858091684
O   2.515160716710  0.042509740114 -10.573306676667
C   2.639184188964  1.096517272132 -9.624167831189
C   3.656790290785  0.736671067361 -8.550442353023
C   4.009571476934  1.890936983507 -7.616691272592
C   4.704879421039  3.050299293198 -8.323805137292
O   5.363745951999  3.951521756378 -7.442497216966
C   4.529033290540  4.396806364675 -6.382640047005
C   5.093853770797  5.602155280723 -5.645074328132
C   4.257688399173  5.976147040534 -4.423029553586
C   2.859541336797  6.459422841348 -4.782081706407
O   2.002455110081  6.545960392985 -3.649197336651
C   0.788048948679  7.232251833514 -3.950157315807
C  -0.356464618588  6.806620732660 -3.045723134294
C  -1.618300918673  7.633458934846 -3.253150249384
C  -2.784463239324  7.079817674004 -2.450830717226
O  -3.094616495566  5.738583415957 -2.801256022140
C  -3.865137886200  5.639249166067 -3.995367232131
C  -4.068964387782  4.193671190640 -4.421499262524
C  -5.020117159709  4.024930412316 -5.600083480650
C  -4.449386218159  4.607528376938 -6.883024017986
O  -3.183315363546  4.041053458100 -7.192757934238
C  -2.742163274912  4.334527651694 -8.509039809535
C  -2.472907864357  5.812220332515 -8.739198290166
C  -1.497061789964  6.399633196302 -7.724149246916
C  -0.134387830844  5.711516344472 -7.710187357426
O   0.867083969648  6.511860986840 -7.091985597538
C   1.459865235241  7.437704880105 -7.999074620336
C   2.644962769975  6.837258986528 -8.741154323957
C   3.172282668298  7.717523439704 -9.866969476904
C   4.417646152675  7.105075319254 -10.486492528233
O   5.444997602170  6.987256587254 -9.507679415058
C   6.427059080422  6.007895254302 -9.820972232552
C   7.427730805001  5.881170955369 -8.683718516404
C   8.142126389865  7.199404884706 -8.423100295823
C   8.835306131960  7.223520292632 -7.069241511768
O   7.888650914307  7.209865419474 -6.007828810045
C   8.487443151633  7.305726659708 -4.719596591002
C   8.983845049332  5.966269109113 -4.199098153374
C   9.564180630680  6.033604706544 -2.788744327234
C   8.592652487388  6.599098452023 -1.757056745406
O   7.346511284530  5.938502045103 -1.737820390742
H  -6.574305770589 -0.394040138828  0.006130610963
H  -8.966111603718  0.784843009890  0.935554190360
H  -8.165012078134 -0.500155206431  1.824664769481
H  -10.011490769220 -1.269208413942  0.214913557130
H  -9.012345186698 -0.744809424313 -1.114065438783
H  -7.959791382088 -2.766252335348  0.917006246021
H  -8.997021259931 -3.277211638538 -0.381010065086
H  -7.331792590590 -2.200450069966 -2.027045319579
H  -6.799519626418 -3.667583341765 -1.230080914481
H  -5.868323524201 -3.060140157844  1.116436011200
H  -4.719746193166 -3.547723398711 -0.127334617706
H  -3.564125726021 -2.399151378047  1.800044772699
H  -4.556236846620 -0.983130778971  1.542031314895
H  -3.596205514913 -0.696033642524 -0.744607532275
H  -2.645781907160 -2.135124654517 -0.547795046849
H  -2.416522032078  0.390217784470  1.181622730889
H  -1.408085127068 -1.031255166030  1.373461501706
H   0.784166247046 -0.738812644156 -0.438283189282
H  -0.515420031623 -1.906543447809 -0.546966971292
H   0.172139085966  0.158424418121 -2.692008371664
H  -1.139501444001 -0.979567433084 -2.819185274995
H   0.403954867656 -2.892941935871 -2.838352173609
H   1.748660857847 -1.879545719404 -2.381007991729
H   1.978017241458 -2.316945040934 -4.751925132982
H   1.478664539852 -0.634730507434 -4.600482948174
H   1.339981870265 -2.321894310022 -6.878468189167
H   0.777290728832 -0.661182730766 -6.770078480984
H  -1.554145663130 -1.492305821430 -7.402592781568
H  -0.892313096987 -3.075365166329 -7.667297013815
H   0.617323690771 -2.197367593716 -9.435971580510
H   0.131933268863 -0.559135303326 -9.077275000576
H  -1.047337278206 -1.360026273279 -11.098308944477
H  -2.217501979137 -1.096415183953 -9.804842712307
H  -1.902537053607 -3.147953741128 -12.287627711558
H  -3.304187735579 -2.392279011532 -11.524915289789
H  -3.757208279723 -4.736736264411 -12.465953414868
H  -2.632855332258 -5.363744169032 -11.280348291773
H  -5.056475357982 -5.515880400665 -10.538646708930
H  -5.158891318956 -3.776569916481 -10.591867375665
H  -3.295449268220 -5.381655395325 -8.770249433263
H  -3.339793756600 -3.623622606111 -8.860165556664
H  -3.827346648437 -3.466662052756 -6.730850725833
H  -3.934408065586 -5.202785883641 -6.440907919174
H  -6.339436188331 -4.921325415541 -5.756067086800
H  -6.225587592961 -3.211743102571 -6.082542870223
H  -6.011005917336 -3.608696380330 -3.656401256542
H  -4.678513254476 -4.709797978866 -3.903723718624
H  -3.961188684479 -2.328723118179 -3.236596423015
H  -3.222957556842 -2.916758172623 -4.706116429442
H  -6.519528924595 -1.413396561945 -4.138142928848
H  -6.011393654620 -0.025211949727 -5.080244350375
H  -5.031994635156 -0.795817814400 -2.290653917127
H  -4.120584944804  0.280127163725 -3.312940033169
H  -6.196344488385  1.755943828662 -3.494442631363
H  -6.944579825011  0.774736205633 -2.251646073924
H  -5.066916192786  1.317183832808 -0.682929026725
H  -5.720568372339  2.829874056503 -1.319142659071
H  -3.026989837609  2.233075577293 -0.249000358632
H  -3.567838971651  3.810875506906 -0.831496469699
H  -1.248104440422  2.200035762349 -2.016770714664
H  -1.801651282025  3.745718919309 -2.605801328676
H  -1.219436980761  4.768908080152 -0.342949286883
H   0.158195895587  4.164264677532 -1.219687437363
H  -1.233076390091  2.740137496020  1.098164193166
H   0.039099867928  2.014261163938  0.114665481934
H   1.121841862983  1.768234998414  2.072524680960
H   0.160555271297  2.824436451883  3.112501077324
H   2.584061972324  2.707620799612  3.879460915215
H   3.075710991204  3.288187750720  2.304176259167
H   1.406876382257  4.855502335125  4.326223663477
H   1.685723677068  5.367635237428  2.674403051525
H   3.375247650377  6.425867714549  4.200378403741
H   3.924813739728  4.816778701573  4.684728181153
H   5.983043964756  5.014083258427  3.934308128145
H   5.785955255974  6.678461112704  3.369973546137
H   7.654408352941  5.482934518159  2.111223513597
H   6.348273968502  5.971899466399  1.051589935579
H   6.713263582930  3.164537643349  2.219303651321
H   5.309471157160  3.675029242843  1.329054249435
H   8.154946372167  3.575899068257  0.210154722435
H   6.756672854917  4.226234961159 -0.648001301424
H   6.952915670612  0.831472055870 -1.764530584141
H   8.387097836744  1.773681127097 -1.415619952840
H   5.907185337590  3.102062636623 -2.601796329576
H   7.544778178759  3.704601235230 -2.619587060922
H   7.121875373967  2.920777396902 -4.863128084395
H   8.121746244408  1.674903528840 -4.141162560173
H   6.209279137583  0.611277752730 -5.311464516191
H   5.967136163856  0.399425158585 -3.582605798371
H   3.941877017119 -0.076703340551 -4.264533582469
H   2.855359488709  1.178389733706 -4.818129223119
H   2.374035683959  0.564323809235 -2.438707644216
H   4.009255204243  0.981849725645 -1.987147875314
H   3.633793224858  3.340488245982 -2.470158292174
H   2.320011983144  2.783459278778 -1.463738224385
H   1.372035995729  4.152788574649 -3.281913896742
H   2.232534360391  3.217096879812 -4.489647849140
H   0.702122795156  2.193474368803 -5.661416645814
H  -0.363133566304  3.424816046244 -4.989093723426
H  -0.868217772858  0.423141886375 -4.684165258953
H  -1.988715340687  1.692275183952 -4.285721066851
H  -0.977445353041  0.981441779810 -7.091012470454
H  -2.028860952168  2.327830075796 -6.774172338626
H  -3.877362069063  0.907155737525 -6.188439563886
H  -2.837168123470 -0.463233048154 -5.839500488508
H  -4.367687994279 -1.407645255934 -8.804011038020
H  -4.798141902459 -1.114332031521 -7.125001217676
H  -5.505238878141  1.224778648321 -7.722431259579
H  -6.389162450192  0.076656972374 -8.702599522403
H  -3.810453924998  1.491997365579 -9.564264433187
H  -4.720544456830  0.386341122536 -10.553392904884
H  -6.678550307532  1.925604243072 -10.518466353803
H  -5.789409520079  3.063163815843 -9.515209448376
H  -5.342690001792  4.289386134359 -12.861892170511
H  -6.133298308832  4.646115235074 -11.331540573313
H  -7.769848000510  3.985129261198 -13.208184086846
H  -7.898290461374  2.987028407672 -11.790147215191
H  -6.394441718564  2.271804066997 -14.356692421254
H  -6.247594049944  1.359454184160 -12.882660406950
H  -8.697489747727  0.856600668893 -12.898281242905
H  -8.902657469114  1.850613492613 -14.329964233922
H  -7.266159015583 -1.025776415220 -13.045410762452
H  -6.024133604046 -0.325056552360 -14.083204719338
H  -6.730471832129 -1.866811878567 -15.936031144747
H  -7.882815449871 -2.616458629034 -14.865261136210
H  -5.834581788647 -3.996347821431 -14.944060379313
H  -5.996562204734 -3.314749645224 -13.339225726037
H  -4.261199207225 -2.037485937984 -15.503986207723
H  -3.630416763888 -3.149915796826 -14.293644660994
H  -2.239070972136 -1.174204081936 -13.882494239489
H  -3.250414698397 -0.135557432343 -14.883255620628
H  -2.890908612982  0.181418745842 -11.861735465340
H  -3.864016633291  1.218983349272 -12.862791505055
H  -0.842109138541  0.838588521455 -13.158189198420
H  -1.799979774616  1.889239426612 -14.161386197081
H  -2.439604126302  3.257711904776 -12.168848787992
H  -1.510273428089  2.187267854079 -11.125163953342
H  -0.651388707081  4.257555863505 -10.564790316954
H  -1.175116585325  5.198060829754 -11.961530870593
H   1.726014295627  4.642985378311 -11.144958080621
H   0.879623105129  6.164254723801 -10.951560022889
H   2.195058542806  6.456066700781 -12.920578762754
H   0.579067587752  6.158725434713 -13.527386673404
H   1.223602964345  3.716528572696 -13.837498663025
H   2.211996309970  4.808086426921 -14.808089934256
H   4.668672845395  2.889400676131 -14.009989140380
H   3.102691504854  2.678356967313 -14.775493964392
H   3.576873726197  0.632788688300 -13.472362316682
H   3.995282159822  1.571054684341 -12.063791129589
H   1.669476801107  2.421481804833 -11.893313698047
H   1.219401816019  1.543689354584 -13.324509786244
H   0.580655430939  0.375120240668 -11.142108286247
H   1.555477608358 -0.613921727732 -12.220126806702
H   2.946301495686  2.003438596164 -10.152405953303
H   1.655806397973  1.300439239131 -9.186974793475
H   4.566981200718  0.376949516485 -9.043872206204
H   3.283430739041 -0.123179167939 -7.980877655595
H   3.104778569379  2.248448930156 -7.112645526087
H   4.668295036781  1.533322879641 -6.817411218154
H   4.001361148598  3.627726504985 -8.933969368882
H   5.472535451534  2.672362142143 -9.008402847941
H   3.540356837061  4.615883143763 -6.798142805685
H   4.410191485265  3.559003070784 -5.687856302204
H   5.168112346021  6.454135015438 -6.329805109335
H   6.125915835942  5.380602984591 -5.351577342999
H   4.171530270993  5.107984935935 -3.761878592413
H   4.759517475049  6.745202681652 -3.823751747639
H   2.902472836749  7.442193641921 -5.264751313906
H   2.374633061333  5.778266710607 -5.489101127180
H   0.985032138110  8.305911931874 -3.855543203541
H   0.529913361800  7.045949291725 -4.998989096537
H  -0.034393100617  6.865661430722 -1.999964709422
H  -0.578330130987  5.747927083301 -3.219019228910
H  -1.871943926644  7.648672552501 -4.318360133591
H  -1.426626699469  8.679946226434 -2.985162424198
H  -3.689254442446  7.688464195942 -2.563834188750
H  -2.540302950952  7.075708431811 -1.382399050474
H  -4.830241001239  6.123689945905 -3.810848042007
H  -3.365777532355  6.208083845424 -4.784558664403
H  -4.430007099937  3.628648892726 -3.555881985424
H  -3.096850609119  3.756237159259 -4.671635455980
H  -5.223859991370  2.959086517593 -5.759049192440
H  -5.989155873990  4.483125539542 -5.367361558667
H  -4.321066601823  5.690453714555 -6.790354946576
H  -5.123958408297  4.435815331205 -7.729243724444
H  -3.483109292426  3.941902360049 -9.214910082631
H  -1.829849974276  3.749013148974 -8.665797098981
H  -2.085271000010  5.968330732557 -9.753115207982
H  -3.419755554694  6.364616049168 -8.709393194062
H  -1.355281202952  7.468922437939 -7.920911249935
H  -1.927210450903  6.351815737129 -6.717800006333
H   0.195278701221  5.471479254522 -8.725399017717
H  -0.180253831235  4.759469693882 -7.169089440594
H   1.768903073429  8.317104797378 -7.422754453690
H   0.695178276523  7.784799379745 -8.702134857839
H   3.454461695782  6.635378204734 -8.031458242857
H   2.374031406529  5.852574406935 -9.135223168790
H   3.419384839494  8.708066128084 -9.468741896915
H   2.395595840149  7.883688143526 -10.622631754006
H   4.195449225742  6.107940416673 -10.883082739849
H   4.807293843383  7.708274659918 -11.314659629645
H   5.915761510720  5.057064824599 -10.009218938993
H   6.921836341457  6.309450134218 -10.750461454069
H   8.152097762074  5.080002707051 -8.874986714486
H   6.888244105937  5.583916985857 -7.777607109072
H   7.403580366084  8.009563088294 -8.448522478799
H   8.847955845920  7.412287794602 -9.235560553616
H   9.450954837638  8.123840035420 -6.958197565306
H   9.496307355607  6.358040087010 -6.958645117743
H   7.721483932494  7.719690159798 -4.055087112910
H   9.295151142667  8.044900574426 -4.753758418515
H   8.154554394909  5.252419415025 -4.226523208955
H   9.726914448525  5.558121476844 -4.894098247812
H   10.483349914003  6.632560905010 -2.797724075008
H   9.871126547218  5.028781047550 -2.472975090124
H   9.010308305066  6.519184918149 -0.745358834782
H   8.416907390192  7.669787882700 -1.921690020160
H   6.866139607340  6.096742484728 -2.582173071751
