388
pair_id=pair_7281369a0f23aafabcfb start=4 nco_site=2 oh_site=2 attack_angle_deg=105.000000
C   0.284581330700 -2.856296821600 -1.075228802200
C   0.162525852300 -1.597457455400 -0.204947230400
C   0.845005092100 -1.904537770700  1.131145514700
C  -1.328669048700 -1.291252660800 -0.005722197300
C  -1.570475083400  0.087872243400  0.610820554000
C  -0.957110448900  1.181183157800 -0.269036073900
C   0.549683356000  0.994266183800 -0.497159448500
C   1.002261202900  1.956948628000 -1.604047402300
C   1.307902346100  1.391971275300  0.789954740500
N   2.703572888200  1.171113099200  0.732383851000
C   3.569168631800  0.422084370500  0.420855653800
O   4.549802891200 -0.154504117100  0.185714036600
C   0.831914196600 -0.441038993400 -0.968894226600
N  -2.963431143600  0.322177330700  0.785377568700
C  -4.013442667400  0.395831636900  0.235484889300
O  -5.116375984200  0.510373170000 -0.104212560000
H  -0.200973184600 -3.701335647600 -0.592771820900
H  -0.180392270100 -2.708228461400 -2.047427195000
H   1.331183276900 -3.106678504200 -1.231501354200
H   0.669336818000 -1.138529666000  1.878580217000
H   1.919144116400 -2.004976794700  0.992809095200
H   0.466878515000 -2.844074041600  1.529162011100
H  -1.834031280800 -1.321260360500 -0.974603031900
H  -1.780892848400 -2.056062502900  0.628522771700
H  -1.151102782700  0.129873374500  1.620567689400
H  -1.463600897200  1.156635133100 -1.237165534300
H  -1.148305840500  2.158375955300  0.179489575800
H   0.772454559600  2.985326617500 -1.333946347600
H   2.075584442100  1.874781849200 -1.759270064200
H   0.502011787900  1.732699420800 -2.543044673500
H   0.909588571900  0.871441133300  1.663883790100
H   1.176321145700  2.466024633200  0.954683369000
H   0.487257832900 -0.500634134700 -2.004285460000
H   1.911225245100 -0.607683746400 -0.987976068100
O  -6.071285838821  10.769692536817  7.707350399335
C  -6.250487973709  11.727797224842  8.721859670934
C  -7.395272565089  12.701852475019  8.446767898604
C  -8.802530543206  12.091689318845  8.560579449610
C  -9.300499716176  11.366946916229  7.308551401624
O  -8.702882799868  10.097043782181  7.070278435877
C  -9.250354943458  9.060054148161  7.875833440195
C  -8.409889529211  7.793243276925  7.817922074655
C  -8.284639677840  7.255127157923  6.399413252010
C  -7.461884557856  5.979406831723  6.315084491930
O  -7.305258222612  5.516146339748  4.980297214985
C  -8.501033044746  4.949548332962  4.439878264381
C  -8.829841003344  5.480654703450  3.052215371988
C  -10.094309420768  4.846406550995  2.476964501523
C  -10.288434886782  5.114765204322  0.991141521875
O  -10.602489540485  6.467754173784  0.681356977496
C  -10.790881709636  6.632791645410 -0.723407131262
C  -11.194627025166  8.043060993781 -1.131691177634
C  -11.195199936026  8.216023103506 -2.646398938019
C  -11.415023826906  9.654693923709 -3.085617473002
O  -12.672293003177  10.172529805746 -2.665444416724
C  -13.039359375227  11.344738773870 -3.387287560739
C  -14.221040382808  12.070377332878 -2.759909129248
C  -13.868255904431  12.687620991949 -1.411147024682
C  -13.508250634213  11.651705728787 -0.360025852786
O  -13.108691316351  12.248921479792  0.867737255261
C  -12.667152668947  11.281442270857  1.813287313582
C  -12.040775917685  11.926142975721  3.039175809849
C  -11.499294605272  10.912745070864  4.041807438444
C  -10.487133548418  9.976245251756  3.398407571305
O  -9.540607897855  10.671108649485  2.602137922200
C  -8.523756304075  11.327601707471  3.344041195823
C  -7.615950084829  10.340263846587  4.061535659741
C  -6.256232571207  10.899836341238  4.455960509904
C  -5.333301620817  9.763780842173  4.870013962173
O  -5.304285620999  8.764054121008  3.857935840671
C  -4.559231093786  7.609015163287  4.223619081456
C  -4.617447341563  6.547513789022  3.136285972341
C  -3.824434968442  5.286769128928  3.465225042172
C  -4.424029674217  4.484007244155  4.608718104535
O  -3.751948320642  3.242390617969  4.784471343085
C  -4.276028767915  2.476303060172  5.862510360453
C  -3.769361708634  1.044298171600  5.808085379812
C  -2.250555584298  0.968674396486  5.861836530142
C  -1.755530811573 -0.429848049737  5.524786949135
O  -2.174532875752 -0.799101359565  4.216060832622
C  -2.010527850406 -2.181437618288  3.919533301416
C  -2.734176682275 -2.528155905226  2.627310565588
C  -4.200993348150 -2.126046181146  2.715174659597
C  -4.945259875820 -2.228324612598  1.394705175998
O  -6.261579158188 -1.703062753319  1.499973942348
C  -6.993349071412 -1.751358834678  0.284252895241
C  -6.330712753456 -0.997523975059 -0.867216541904
C  -7.306593011629 -0.614182633493 -1.976213393197
C  -8.196239746001  0.541968689131 -1.546912945724
O  -7.438625495222  1.737167989289 -1.358368754751
C  -7.996857795200  2.615440954210 -0.385976278437
C  -7.330124219584  2.475889556607  0.974369258071
C  -5.832359661986  2.764431416372  0.932542575428
C  -5.510392644758  4.087780350700  0.250442605312
O  -6.237684934246  5.175946690564  0.813605839127
C  -6.350083437774  6.280175772409 -0.082647232835
C  -7.159097202267  7.424689057839  0.511386617868
C  -7.521169245373  8.496087907996 -0.509306186904
C  -8.287129277718  9.661462919910  0.110338376458
O  -9.089879666466  10.350977466713 -0.844688130385
C  -9.458800293294  11.654204553300 -0.412340477397
C  -8.399326089965  12.674696382886 -0.786990831231
C  -8.146102917623  12.638322631969 -2.286328056495
C  -7.060325497513  13.593307229195 -2.749995528937
O  -6.851224050041  13.503807883497 -4.156174199762
C  -5.969914249915  14.495755265928 -4.661868037925
C  -6.517651722392  15.909199862244 -4.511683193906
C  -7.956285829532  16.000834509758 -5.007032388273
C  -8.640503834312  17.309464527592 -4.639149791796
O  -9.958288870563  17.437153197856 -5.157478007614
C  -10.820345413294  16.374874729619 -4.767703559766
C  -12.270365289027  16.631859382088 -5.145428940783
C  -13.186890713746  15.446235812755 -4.851749846254
C  -12.786108237873  14.201682996440 -5.633552686544
O  -11.547771138980  13.664227871333 -5.179595593754
C  -10.987982324151  12.723444535479 -6.091006885070
C  -9.673198610054  12.152340699766 -5.584002933027
C  -9.069941094575  11.120581567552 -6.528045485814
C  -7.761828991149  10.544649268800 -6.009280274779
O  -7.226375669627  9.538857271300 -6.868889314520
C  -5.899481634426  9.186035424780 -6.503454776754
C  -5.370303225720  7.945974808443 -7.211766473965
C  -5.380966713065  8.063681331697 -8.731519271405
C  -6.774989406230  7.888955860445 -9.309449871209
O  -7.286638863105  6.577328180345 -9.080214916399
C  -8.660979293108  6.438187359718 -9.449291036585
C  -9.583908236390  6.371907756471 -8.238606061880
C  -9.324803627700  7.510672514419 -7.269510090333
C  -10.240153521194  7.494188661856 -6.054955859563
O  -10.345560153337  6.228374535202 -5.424684711951
C  -9.114143777780  5.718505961161 -4.923859398657
C  -9.324651824729  4.369664673575 -4.249907312017
C  -8.030349379945  3.653216694227 -3.875529261118
C  -7.182554551330  3.265159689835 -5.083105266939
O  -6.183745922872  2.293459460820 -4.798165496394
C  -5.385425113187  2.635467025069 -3.673872144494
C  -4.118150731018  1.799818375099 -3.566176517405
C  -3.347844602709  2.081152203587 -2.277799421311
C  -2.792342317270  3.496910056608 -2.211950589812
O  -2.317434576832  3.838882672755 -0.914634163112
C  -1.576343527543  5.058343008760 -0.922098801365
C  -1.612711435503  5.765693798366  0.422299414967
C  -0.707349419120  6.988945435008  0.476089020137
C  -0.889157955112  7.759116208000  1.773760963336
O  -2.223728300430  8.211783766441  1.952412430091
C  -2.515857879320  9.390889566049  1.208206873191
C  -3.983126671942  9.777802170486  1.309450933948
C  -4.314704723556  11.118484346701  0.665360021812
C  -4.147434920039  11.083721730397 -0.845236877332
O  -4.931700558388  10.053564313369 -1.431297834997
C  -5.033544929943  10.157511311395 -2.842737875674
C  -3.706743066357  9.967088273183 -3.558547167717
C  -3.016977145764  8.658461198995 -3.185221372805
C  -3.850187795837  7.415243979730 -3.486470461309
O  -3.057772800372  6.233917372212 -3.533551784668
C  -2.470548844287  6.023796710643 -4.815115037806
C  -3.384248099983  5.238417724095 -5.744634936517
C  -2.886600545102  5.175294778124 -7.182951294663
C  -3.789197724335  4.286699478016 -8.022920606159
O  -3.792151252837  2.960701294268 -7.504145646972
C  -4.937012851823  2.202360991361 -7.872870017193
C  -4.905755545619  0.838961533871 -7.201368815907
C  -3.667771824498  0.050279107935 -7.603114927632
C  -3.398228198092 -1.118666661087 -6.667740490594
O  -3.025676448897 -0.664053115053 -5.372568224839
C  -2.691342520842 -1.722067133128 -4.480317736943
C  -3.912294073433 -2.352714611651 -3.829901668941
C  -3.572660239862 -3.441009637260 -2.814675496655
C  -2.648245559800 -2.964826883500 -1.698101782030
O  -3.116715860258 -1.811609741430 -1.034587389978
H  -6.965386045771  10.448052971902  7.440081396955
H  -5.293973940076  12.256728466637  8.821893011952
H  -6.410536921612  11.200097132386  9.670607227389
H  -7.309786802547  13.546665572615  9.144117374457
H  -7.265159106756  13.137281733929  7.450043996954
H  -8.837888670238  11.418046220055  9.422378682286
H  -9.516537349176  12.892383520370  8.799853929054
H  -9.106318140280  11.982434281317  6.423818020490
H  -10.385881424684  11.213234611277  7.341421680802
H  -9.340736043474  9.423057268873  8.905132427667
H  -10.265847067081  8.865485639711  7.513293301968
H  -8.834171106034  7.021185848961  8.471588605984
H  -7.410545884331  8.003044965241  8.216218950503
H  -7.826319603711  8.010508708222  5.754536873586
H  -9.281894860176  7.091503839499  5.977592591789
H  -6.457869657068  6.145925519191  6.720265916209
H  -7.905258639114  5.175126699399  6.912482566167
H  -8.357243231467  3.863056849186  4.412864559817
H  -9.337437226152  5.126939744988  5.124307915581
H  -7.975990014747  5.289653981074  2.393370712944
H  -8.930663979314  6.571209093625  3.084611924732
H  -10.971786804098  5.202155087245  3.028616517156
H  -10.059079968641  3.763498847819  2.652313116195
H  -11.096946716397  4.492172183977  0.589053949018
H  -9.379811322680  4.854346561057  0.439356410991
H  -11.546941402836  5.913001433544 -1.056560837534
H  -9.852951036193  6.350788292010 -1.214901935294
H  -10.506660591566  8.761478835549 -0.678552699680
H  -12.177693037772  8.292083631372 -0.717104893827
H  -11.968633290145  7.577763862103 -3.088630558983
H  -10.244101148226  7.846803453680 -3.047658311496
H  -11.362161159628  9.741799573760 -4.177089622873
H  -10.636960205485  10.304746868435 -2.670767928476
H  -13.263337351445  11.034689786196 -4.414775133849
H  -12.167512654837  12.007649708271 -3.429931799159
H  -14.593346101950  12.845774915869 -3.441696156383
H  -15.046377851577  11.360870413762 -2.633742677342
H  -14.695313193344  13.302211155303 -1.035258886046
H  -13.025421804656  13.378339510048 -1.529414380210
H  -14.355141262041  10.986218180014 -0.159520477027
H  -12.683882164984  11.022914715519 -0.712943484890
H  -11.941852751129  10.632709891598  1.310286267464
H  -13.522885632911  10.656314278643  2.090948034159
H  -12.772046753908  12.593152460786  3.511259994946
H  -11.226437504212  12.578227637790  2.703120822799
H  -11.033256538410  11.438315930216  4.883272822834
H  -12.323897528321  10.334565056403  4.476935929548
H  -9.965017856372  9.359980896138  4.137814613066
H  -10.989576882315  9.270552396005  2.726240733286
H  -8.979450334986  12.045756584128  4.033032908986
H  -7.946098078202  11.916861406647  2.622932839751
H  -8.120267727609  9.939436874802  4.945502058816
H  -7.458680597288  9.478116699329  3.401843972526
H  -5.818674841609  11.425177040504  3.599563100552
H  -6.355670265342  11.647840732600  5.251599600379
H  -5.688188968739  9.293757996414  5.793362009614
H  -4.309320170936  10.110519053064  5.050473804386
H  -4.964713222980  7.227128260275  5.165607527223
H  -3.524577234662  7.917629720656  4.410300840205
H  -5.664874383478  6.285237131216  2.949044338931
H  -4.255553996696  6.990697096754  2.201615495345
H  -2.786939779754  5.544956663770  3.704744164735
H  -3.762954090042  4.635421383385  2.585692150446
H  -4.375360332154  5.037742278489  5.552055155061
H  -5.480635028276  4.269768688146  4.411361065226
H  -5.370899109054  2.511748216135  5.812572610001
H  -3.974634951443  2.964279610961  6.795855918883
H  -4.209550240810  0.437409282257  6.608775272609
H  -4.106554643578  0.590066307009  4.869124092111
H  -1.884498002011  1.296694288398  6.842269003508
H  -1.838705263345  1.676594828846  5.132846334310
H  -0.662333794607 -0.499252486177  5.562714496468
H  -2.157989018980 -1.158579823407  6.236574984489
H  -2.420650577710 -2.761492540091  4.753318185553
H  -0.937294282977 -2.396180165509  3.862435424895
H  -2.638794701359 -3.594045229946  2.387692033014
H  -2.263553993744 -1.988283746613  1.797250214982
H  -4.716231060109 -2.719048113212  3.479038487841
H  -4.265677807668 -1.090387665387  3.068860772980
H  -5.006067807677 -3.266125317814  1.049831189751
H  -4.414003187293 -1.658256074247  0.627038870987
H  -7.975625652497 -1.324877359889  0.511851574966
H  -7.169728320230 -2.801699981671  0.026156730620
H  -5.868354846170 -0.085668925794 -0.475022099296
H  -5.505833836379 -1.598140406714 -1.266279404630
H  -6.760427958818 -0.311836410646 -2.878147430704
H  -7.906580370703 -1.486588063715 -2.262135358432
H  -8.971075484749  0.754918173762 -2.292743103842
H  -8.714202697014  0.304331009379 -0.612429208830
H  -9.078904593324  2.444888311129 -0.332419518633
H  -7.870929839186  3.633085865055 -0.769718803049
H  -7.807887964230  3.156324179535  1.687743431043
H  -7.506224971230  1.466110350698  1.364705280442
H  -5.313105311363  1.948027340315  0.418434387408
H  -5.428452655564  2.773984960004  1.952602818480
H  -4.442483484824  4.328151759563  0.311897384132
H  -5.751655559201  4.031399781493 -0.816200318343
H  -6.827462944866  5.921240025754 -1.000989487489
H  -5.340847158468  6.609647345152 -0.353640724894
H  -8.081766644973  7.021728462392  0.940843229233
H  -6.619690288386  7.867498174175  1.355545800833
H  -8.128865097201  8.053576672925 -1.306291377553
H  -6.621790958139  8.866090937047 -1.011042355944
H  -7.601612440708  10.368098011609  0.589669813139
H  -8.965077504178  9.305341308560  0.895019706721
H  -10.409661272316  11.896569553805 -0.899817948664
H  -9.655834774449  11.627400218693  0.665330821148
H  -7.467013545191  12.459604503461 -0.253823798760
H  -8.698321072907  13.682567637302 -0.473998803954
H  -7.886417483363  11.617379112646 -2.588520363063
H  -9.075798090899  12.866969434374 -2.818766830335
H  -7.336387417624  14.619443920322 -2.490709799634
H  -6.110165207073  13.382864623702 -2.249073144043
H  -5.821030624552  14.257080299762 -5.721192509792
H  -4.996681992248  14.375996317441 -4.171805059648
H  -5.885522952850  16.631758614017 -5.042716327217
H  -6.475319847141  16.216102265832 -3.460660458219
H  -7.993101426632  15.855664411661 -6.092520033452
H  -8.522239112873  15.162966900572 -4.586897108275
H  -8.692411291867  17.433320412375 -3.551701011253
H  -8.066829090759  18.161214483777 -5.020948643499
H  -10.721041509643  16.216868813662 -3.688094539739
H  -10.466255643947  15.465987317170 -5.263503339679
H  -12.314956503098  16.876680363491 -6.212786860798
H  -12.620118568132  17.533251452835 -4.627793171940
H  -14.229060453809  15.711440352711 -5.072624554552
H  -13.155538654485  15.215776653988 -3.781045506447
H  -12.690595344080  14.440272047624 -6.698492263055
H  -13.539770187378  13.410428072316 -5.550173137796
H  -11.720656331554  11.925459473740 -6.253036995504
H  -10.841153742505  13.224735317066 -7.053963843690
H  -9.833536121433  11.702079809312 -4.599268443805
H  -8.960084826354  12.966333103569 -5.414338479579
H  -9.788963611011  10.311686217905 -6.690933482657
H  -8.905448122524  11.562473648836 -7.517201527733
H  -7.014571671251  11.338642412919 -5.896545060362
H  -7.903356860004  10.098665714492 -5.018306640567
H  -5.887631600933  9.042721311848 -5.417840264662
H  -5.263598553234  10.051063833213 -6.723042460168
H  -5.968665198312  7.075312534552 -6.921147233076
H  -4.350807628218  7.743778666327 -6.860063755991
H  -4.729154300815  7.299738769148 -9.173555010263
H  -4.956437257073  9.030463611545 -9.028681225709
H  -7.461338075696  8.614010965973 -8.861469104474
H  -6.781879079842  8.061272433820 -10.392247651035
H  -8.743281026904  5.532013027649 -10.061598674723
H  -8.933550154118  7.277052938321 -10.099913305529
H  -10.635352956337  6.375716397887 -8.551104047535
H  -9.439085780256  5.417539879248 -7.720246605897
H  -8.279861302134  7.470507704471 -6.943599242877
H  -9.419592650265  8.465324806336 -7.799613675414
H  -9.917466046773  8.223007810027 -5.303650618798
H  -11.260440165879  7.771444756299 -6.344379953068
H  -8.414179116185  5.622936803308 -5.758592200403
H  -8.682847679878  6.446821597454 -4.228666036684
H  -9.910026901046  3.734194512092 -4.924320983728
H  -9.960613017660  4.508890963563 -3.367120175815
H  -7.445158856001  4.279608952254 -3.193098384107
H  -8.260452488826  2.741990553405 -3.312170884445
H  -6.688702083250  4.138494645900 -5.523623516694
H  -7.814440151599  2.836145617019 -5.868900284885
H  -5.150476629925  3.702718738006 -3.736252419546
H  -6.002027560307  2.491032991862 -2.780730264258
H  -3.479684063621  1.980992282514 -4.437828040080
H  -4.391354141468  0.740570903380 -3.627272316682
H  -4.006161273900  1.920530856674 -1.418108081513
H  -2.525620567367  1.367428767931 -2.147571228005
H  -1.974121647405  3.624723256688 -2.929467301424
H  -3.559096392744  4.235358658840 -2.468403355473
H  -0.547519921177  4.816059127690 -1.210752091535
H  -1.982111133105  5.711220585097 -1.703440111647
H  -1.338146553287  5.058072948784  1.212687552907
H  -2.643475398078  6.061381788635  0.646313590996
H  -0.924290879530  7.639604485341 -0.377619085741
H   0.339091813082  6.684159807734  0.350555752974
H  -0.215970033348  8.621875086822  1.839583706335
H  -0.659531051946  7.115665643606  2.630744169315
H  -1.880300360455  10.195212566851  1.594581528088
H  -2.230066733741  9.228434765465  0.165283754702
H  -4.264161926630  9.782999974019  2.367698294453
H  -4.590741609210  8.991713058598  0.849244630282
H  -5.351118722677  11.392046424240  0.897339027450
H  -3.691875889165  11.908110290333  1.103210920582
H  -3.101328582015  10.905137674949 -1.112725255155
H  -4.435125028299  12.039777677584 -1.296692554932
H  -5.489927608496  11.124509170306 -3.083649590894
H  -5.752432621250  9.393109575644 -3.156753978564
H  -3.858527017026  10.004744501852 -4.643998204198
H  -3.046691680254  10.813776707571 -3.334938619125
H  -2.057518734742  8.581309801408 -3.710277295859
H  -2.757610009993  8.660443820913 -2.120900964271
H  -4.375135285833  7.515584714744 -4.441098353080
H  -4.624033939003  7.266527892746 -2.724677088622
H  -1.523177664281  5.493901700879 -4.664474205568
H  -2.212981556183  6.994969741754 -5.251000882738
H  -3.506541750613  4.220182336628 -5.359987244211
H  -4.392400457913  5.664151932437 -5.718615972262
H  -1.868713765717  4.769712329540 -7.198080330659
H  -2.814241406535  6.182181458930 -7.610528167203
H  -4.816224522751  4.668883974360 -8.013741808661
H  -3.465912286059  4.239654662623 -9.069251732552
H  -5.830540682646  2.767665649256 -7.584808925363
H  -4.942050563947  2.105123521774 -8.963837291001
H  -5.815970968167  0.265759687992 -7.416099118021
H  -4.896613825044  0.986386541425 -6.115723386013
H  -2.800861713135  0.721298772799 -7.577574770039
H  -3.756166447324 -0.284957010095 -8.643984353006
H  -2.585831118213 -1.748527575003 -7.048812583283
H  -4.287099679370 -1.750539274172 -6.573641303768
H  -2.030072702272 -1.287541756958 -3.722992129442
H  -2.094498154276 -2.467997579038 -5.016323219568
H  -4.497318966020 -1.563350504891 -3.347504849972
H  -4.572589016882 -2.754362680209 -4.607366246714
H  -3.118585476393 -4.296179630862 -3.330622903064
H  -4.498664344182 -3.824630100630 -2.368639252250
H  -2.527886267060 -3.743881534787 -0.934594933171
H  -1.638452316376 -2.762606579507 -2.077299442224
H  -3.112249957507 -1.042261272228 -1.648437065026
