50
pair_id=pair_2b9627b1261e4b218da8 start=1 nco_site=1 oh_site=1 attack_angle_deg=105.000000
C   0.284581330700 -2.856296821600 -1.075228802200
C   0.162525852300 -1.597457455400 -0.204947230400
C   0.845005092100 -1.904537770700  1.131145514700
C  -1.328669048700 -1.291252660800 -0.005722197300
C  -1.570475083400  0.087872243400  0.610820554000
C  -0.957110448900  1.181183157800 -0.269036073900
C   0.549683356000  0.994266183800 -0.497159448500
C   1.002261202900  1.956948628000 -1.604047402300
C   1.307902346100  1.391971275300  0.789954740500
N   2.703572888200  1.171113099200  0.732383851000
C   3.569168631800  0.422084370500  0.420855653800
O   4.549802891200 -0.154504117100  0.185714036600
C   0.831914196600 -0.441038993400 -0.968894226600
N  -2.963431143600  0.322177330700  0.785377568700
C  -4.013442667400  0.395831636900  0.235484889300
O  -5.116375984200  0.510373170000 -0.104212560000
H  -0.200973184600 -3.701335647600 -0.592771820900
H  -0.180392270100 -2.708228461400 -2.047427195000
H   1.331183276900 -3.106678504200 -1.231501354200
H   0.669336818000 -1.138529666000  1.878580217000
H   1.919144116400 -2.004976794700  0.992809095200
H   0.466878515000 -2.844074041600  1.529162011100
H  -1.834031280800 -1.321260360500 -0.974603031900
H  -1.780892848400 -2.056062502900  0.628522771700
H  -1.151102782700  0.129873374500  1.620567689400
H  -1.463600897200  1.156635133100 -1.237165534300
H  -1.148305840500  2.158375955300  0.179489575800
H   0.772454559600  2.985326617500 -1.333946347600
H   2.075584442100  1.874781849200 -1.759270064200
H   0.502011787900  1.732699420800 -2.543044673500
H   0.909588571900  0.871441133300  1.663883790100
H   1.176321145700  2.466024633200  0.954683369000
H   0.487257832900 -0.500634134700 -2.004285460000
H   1.911225245100 -0.607683746400 -0.987976068100
O   1.583259023531 -1.213601658867 -0.398103588848
C   0.543868327529 -2.069691399018 -0.826732673308
C   0.037557520324 -3.021497627113  0.259725308830
C   0.996144474756 -4.161847575759  0.615755928865
C   2.262025155322 -3.730905456587  1.370570665002
O   3.272689690387 -3.220563442453  0.546386736490
H   1.270088960049 -0.692515766645  0.350304927113
H  -0.296367534440 -1.467697140835 -1.199932159675
H   0.960622588779 -2.635114099039 -1.663228632287
H  -0.897340398072 -3.457666578204 -0.098142955530
H  -0.191477562499 -2.444691604303  1.161652903313
H   0.455886454290 -4.872231550355  1.244726753598
H   1.300578260115 -4.681643840109 -0.294590354104
H   2.700418137816 -4.605813665005  1.858966909009
H   1.992018734045 -3.005163430579  2.155324110643
H   2.915495798718 -2.447768591738  0.076055737334
