219
pair_id=pair_d2c043f5b3c834e8f59f start=2 nco_site=1 oh_site=2 attack_angle_deg=105.000000
C   0.284581330700 -2.856296821600 -1.075228802200
C   0.162525852300 -1.597457455400 -0.204947230400
C   0.845005092100 -1.904537770700  1.131145514700
C  -1.328669048700 -1.291252660800 -0.005722197300
C  -1.570475083400  0.087872243400  0.610820554000
C  -0.957110448900  1.181183157800 -0.269036073900
C   0.549683356000  0.994266183800 -0.497159448500
C   1.002261202900  1.956948628000 -1.604047402300
C   1.307902346100  1.391971275300  0.789954740500
N   2.703572888200  1.171113099200  0.732383851000
C   3.569168631800  0.422084370500  0.420855653800
O   4.549802891200 -0.154504117100  0.185714036600
C   0.831914196600 -0.441038993400 -0.968894226600
N  -2.963431143600  0.322177330700  0.785377568700
C  -4.013442667400  0.395831636900  0.235484889300
O  -5.116375984200  0.510373170000 -0.104212560000
H  -0.200973184600 -3.701335647600 -0.592771820900
H  -0.180392270100 -2.708228461400 -2.047427195000
H   1.331183276900 -3.106678504200 -1.231501354200
H   0.669336818000 -1.138529666000  1.878580217000
H   1.919144116400 -2.004976794700  0.992809095200
H   0.466878515000 -2.844074041600  1.529162011100
H  -1.834031280800 -1.321260360500 -0.974603031900
H  -1.780892848400 -2.056062502900  0.628522771700
H  -1.151102782700  0.129873374500  1.620567689400
H  -1.463600897200  1.156635133100 -1.237165534300
H  -1.148305840500  2.158375955300  0.179489575800
H   0.772454559600  2.985326617500 -1.333946347600
H   2.075584442100  1.874781849200 -1.759270064200
H   0.502011787900  1.732699420800 -2.543044673500
H   0.909588571900  0.871441133300  1.663883790100
H   1.176321145700  2.466024633200  0.954683369000
H   0.487257832900 -0.500634134700 -2.004285460000
H   1.911225245100 -0.607683746400 -0.987976068100
O   5.298418574093  2.027060345219 -1.150499231220
C   6.574084843443  1.428060191117 -1.047514145422
C   7.482362314018  2.129582672445 -0.045386338767
C   8.898304185948  1.565604632713 -0.005119932244
C   9.659354157001  1.844514086757 -1.293141016498
O   9.654126043971  3.230730469698 -1.610440602755
C   10.425067284218  3.531507378491 -2.769979634489
C   10.449326636473  5.024174829999 -3.055986186109
C   11.301179404577  5.401876138986 -4.260413984996
C   11.388138402925  6.912064752792 -4.408307286446
O   11.948712926080  7.510873306735 -3.243524793001
C   11.771815512431  8.920662536916 -3.209733417766
C   12.347509935568  9.535016870056 -1.942020106404
C   11.831886577674  8.854801322955 -0.680866847700
C   10.313274446387  8.877902729073 -0.593757150994
O   9.791682042360  10.190857177372 -0.762916407052
C   8.416451663589  10.196350192409 -1.125239424679
C   7.488520921131  9.793600448951  0.012070291206
C   6.030567054604  9.662479063938 -0.419668036128
C   5.827426913882  8.443909832920 -1.307005099115
O   6.253597091253  7.256636938852 -0.647699755836
C   6.785275821325  6.270416639754 -1.521465615282
C   5.847382972346  5.873856446448 -2.664453175653
C   6.077403595587  4.441435082193 -3.126804509564
C   5.292561103277  4.103417940602 -4.386372256120
O   5.790568858064  4.781859881963 -5.537294412220
C   6.591817114342  3.959422893752 -6.382118574263
C   7.847713285219  3.415553769424 -5.717980912450
C   8.645731452719  2.464674233253 -6.603626602120
C   9.244533061972  3.154728640554 -7.816563236449
O   10.082885248558  4.246504048976 -7.454595943932
C   10.805296789316  4.747895889731 -8.575553576639
C   11.463541514854  6.088180566143 -8.307873386301
C   12.189991556555  6.649435627383 -9.529107843362
C   11.274222544165  6.775475071879 -10.744628081278
O   11.065320745391  5.530900402934 -11.415315676570
C   11.987042321678  5.345072453212 -12.484839053505
C   11.974958715311  3.941143442018 -13.077729452313
C   12.384554446466  2.872497210855 -12.064503082792
C   11.211342660162  2.420944589531 -11.209524754248
O   10.304145868482  1.609869045335 -11.944446863406
C   9.173332797108  1.226717897416 -11.168120864318
C   8.240619200477  0.306595250504 -11.939177881860
C   6.954879543662 -0.025962300773 -11.188003614593
C   6.183416052892  1.227900927653 -10.792186949831
O   6.136878150020  2.193779537210 -11.829997613618
C   5.286490751273  1.833932127754 -12.906879882784
C   5.250893008033  2.905947768702 -13.987654643931
C   6.601515582181  3.122233865484 -14.660993652301
C   7.622573914566  3.757666487457 -13.729991903811
O   7.153814780096  4.989294951182 -13.197239811393
C   8.161713738614  5.710302909477 -12.494557813837
C   7.550232300667  6.734520822409 -11.547181678642
C   6.963688061049  6.097457250585 -10.289399772406
C   5.913435911361  5.035708773859 -10.580072748461
O   5.291282514428  4.514711688362 -9.412120009414
C   4.444056771859  5.464312273391 -8.773631476840
C   3.445073907085  4.815381695670 -7.825738558092
C   2.427887398098  5.808875309586 -7.267439208819
C   3.050351659900  6.890286520047 -6.394861532742
O   2.099548225954  7.885839291741 -6.037342697201
C   2.657060003257  8.937885521816 -5.264183908032
C   2.849909609586  8.557981996185 -3.804899165705
C   1.557545624318  8.051266749332 -3.186512309755
C   1.692810512153  7.774851519317 -1.697606396798
O   2.664909695274  6.776700788561 -1.412709745872
C   2.762086485984  6.520131841396 -0.013579828073
C   3.742779742714  5.405240425725  0.313261607219
C   3.845101078075  5.120917636149  1.805675161505
C   4.796819257701  3.969859597445  2.099043973366
O   4.375223877957  2.751495339331  1.522726552968
H   4.959521495988  2.242844449266 -0.245496186446
H   7.013272361965  1.442607634212 -2.051309554563
H   6.442890440418  0.371244385500 -0.783405470924
H   7.529322871469  3.194671149525 -0.295669244500
H   7.020619713508  2.081992048802  0.948409603598
H   8.868747202855  0.488653454537  0.200420533874
H   9.448649289907  2.016237634909  0.830249596556
H   10.701873148353  1.513659605952 -1.216645372227
H   9.214636064465  1.307960262315 -2.137811338203
H   10.006130789365  2.977665789777 -3.616547875030
H   11.441648223785  3.155748460448 -2.609982099312
H   9.425189890530  5.387247894969 -3.192833843341
H   10.819798379105  5.550976611338 -2.168879994336
H   10.901888682896  4.938935248440 -5.171321389804
H   12.310791326669  4.995049568360 -4.133619401042
H   10.389125646535  7.334199867162 -4.564225338155
H   12.004815757726  7.203699631040 -5.266097578259
H   10.697403274800  9.122952318650 -3.278806515473
H   12.236412421819  9.344163200729 -4.107982263834
H   13.442303645889  9.471817419529 -1.975524354689
H   12.106833271140  10.604905306102 -1.905447648462
H   12.251805404422  9.347861150416  0.204719854733
H   12.190523053092  7.818244769496 -0.649091372238
H   9.880987398553  8.234606063740 -1.368194363590
H   9.964235870879  8.492681484614  0.371111479368
H   8.179900053148  11.209074506678 -1.470721722879
H   8.293913422763  9.542405087926 -1.994525098070
H   7.816053140737  8.835089126135  0.428316531869
H   7.592560365034  10.517896141156  0.829144260611
H   5.388776535272  9.561173340008  0.464069448283
H   5.702876477424  10.576094084929 -0.930083424999
H   4.773433759863  8.310082103366 -1.575636197335
H   6.386948859655  8.547563843607 -2.242274766652
H   7.752647326446  6.624232761448 -1.895204463892
H   7.004778891684  5.400787565440 -0.892302794459
H   5.962908413779  6.561716168599 -3.510262828191
H   4.806057254859  5.988930891128 -2.342156913190
H   5.811972596380  3.752635865765 -2.316792644957
H   7.146619399702  4.290452525169 -3.302082500924
H   4.243724699088  4.397877069174 -4.264909122928
H   5.286208717694  3.025289448858 -4.586722079467
H   6.849097764836  4.568310050953 -7.255739755984
H   5.964322807013  3.141909832188 -6.753685946645
H   8.480646785576  4.256504519091 -5.414654172323
H   7.571937743053  2.897952911414 -4.792646348005
H   9.460170148312  2.015400278661 -6.021841584448
H   8.008104087111  1.629353928980 -6.919023785108
H   8.458099653566  3.541809001932 -8.473508016265
H   9.840933682648  2.452174701548 -8.409973943197
H   11.556470105117  4.001234250055 -8.854334096126
H   10.104960314164  4.837060091063 -9.412815610247
H   12.151334328224  5.988214538900 -7.459870300750
H   10.693821912752  6.794570260021 -7.975740391969
H   12.628914482053  7.625099629711 -9.281885190831
H   13.034068442300  6.000771596740 -9.787610521872
H   11.663073782580  7.496517595166 -11.474052640333
H   10.294740902999  7.153745863130 -10.435149874322
H   12.988604288956  5.583019079348 -12.110056642823
H   11.748620621156  6.092851318376 -13.250834326392
H   12.639506814708  3.909448000406 -13.951694187952
H   10.973307988914  3.709688798860 -13.456567008164
H   13.199039961425  3.256430254930 -11.437759331952
H   12.789527916057  1.990942075057 -12.577136745657
H   11.546332067282  1.843183920808 -10.339975571720
H   10.655537857126  3.289410461674 -10.844932392002
H   8.655060390414  2.143832456244 -10.868602847954
H   9.526169407543  0.739688918007 -10.252643429432
H   8.780971853479 -0.607733909308 -12.212756109165
H   7.994919129514  0.788049110288 -12.891581260471
H   6.320538706556 -0.668559935337 -11.810985034216
H   7.184735444488 -0.621700262377 -10.295879358915
H   6.663035599624  1.724065596257 -9.940204206809
H   5.158377937964  1.003151439496 -10.474837291558
H   4.286355206610  1.657165755179 -12.493766867809
H   5.637103609875  0.884450680105 -13.323532396761
H   4.489716449774  2.652794204051 -14.737514535578
H   4.928522268655  3.850880316186 -13.535746102316
H   6.476812546515  3.775722392653 -15.533560930174
H   6.980077479911  2.169640608368 -15.051174873975
H   8.572934097464  3.942774950661 -14.244086083420
H   7.832439258796  3.101660919013 -12.879466476011
H   8.786195440852  5.000152783375 -11.940486337403
H   8.802487345813  6.185214624394 -13.247133716905
H   6.762384433437  7.272760082227 -12.086440012681
H   8.292018079056  7.494778111508 -11.273119829947
H   7.763288460883  5.648005666114 -9.690236927984
H   6.530112370793  6.875004066701 -9.650539884962
H   5.132884192424  5.422582973960 -11.244163135101
H   6.360539410980  4.184222292078 -11.105555426960
H   3.912471980119  6.028497531095 -9.547985070326
H   5.081991766471  6.174178123867 -8.237919095102
H   2.935612853160  4.003238006425 -8.358272450020
H   3.983841697770  4.331957577903 -7.004895758420
H   1.894887122960  6.291582418496 -8.094426452675
H   1.652911109314  5.289642270387 -6.690819493859
H   3.473897483825  6.458756990324 -5.482245713106
H   3.868222869936  7.391198063174 -6.922484958273
H   3.593139555428  9.262804954961 -5.733208803769
H   1.959520946443  9.779504461810 -5.345565151587
H   3.621894839864  7.786914676154 -3.712996870177
H   3.223799139127  9.417733033949 -3.235141524981
H   0.755211379951  8.777451683830 -3.366716006780
H   1.247134256852  7.135860455247 -3.703308677380
H   1.986088759151  8.686815212162 -1.165645784120
H   0.737864765588  7.444866851955 -1.271609761402
H   1.762368537113  6.267015133708  0.356405324744
H   3.061331177810  7.450949134164  0.481023555425
H   3.453786366115  4.495255257435 -0.224380268745
H   4.730078739430  5.669904590729 -0.076453098463
H   2.851724402819  4.883810359669  2.202969779085
H   4.165908382153  6.028177054242  2.332522484507
H   5.791564149349  4.190101290464  1.694168398851
H   4.930018562580  3.818305180220  3.178509220262
H   3.477398358866  2.522473906721  1.854887215669
