46
pair_id=pair_597bf6d46537121911f9 start=1 nco_site=1 oh_site=1 attack_angle_deg=105.000000
O   6.071138798300  2.480874245000 -0.539966886600
C   5.281563264000  1.703290642200 -0.203729312400
N   4.583194840700  0.895553337000  0.323028101100
C   3.469566272400  0.097992287700  0.217823463600
C   3.141003666300 -0.720825069600  1.291776942100
C   2.027239290200 -1.535897111400  1.217504870200
C   1.230376574900 -1.552900220000  0.080976745700
C   0.000129982500 -2.417918638600 -0.002577497200
C  -1.230253681400 -1.553071685200 -0.084299228600
C  -2.021435998300 -1.526209840700 -1.224619472200
C  -3.134787785500 -0.710465627800 -1.297435226200
C  -3.468763238200  0.098981255200 -0.218056518800
N  -4.581846364100  0.897438299100 -0.321975352000
C  -5.282652338400  1.701065266500  0.207899688400
O  -6.073694902800  2.476057311700  0.546553031600
C  -2.680498724400  0.084975519400  0.931153113200
C  -1.572915706700 -0.735626567500  0.987803746500
C   1.567638803400 -0.726117648500 -0.985674162700
C   2.675451036000  0.094047662700 -0.927432521900
H   3.761402694000 -0.710428411900  2.174324307200
H   1.779230559000 -2.170944736200  2.055913696000
H   0.058433977900 -3.056457871800 -0.886664495400
H  -0.057740878700 -3.058561817600  0.879976911700
H  -1.769229849800 -2.154027086400 -2.067217719300
H  -3.750781892300 -0.692421148900 -2.182945547900
H  -2.943609239700  0.716629811900  1.766859046600
H  -0.960209384700 -0.742612630800  1.877475508100
H   0.950329509800 -0.725172817000 -1.872181069100
H   2.934211927200  0.733133578500 -1.758835180200
C  -1.068157355563  2.053506510022 -0.607038054015
C  -0.466489234615  1.013760092121 -1.551684071185
O   0.746878704420  1.539893879437 -2.045298858462
C   1.392940441626  0.693506952869 -2.972097131504
C   2.703013755179  1.368686943443 -3.376165451398
O   3.584262697644  1.483041604723 -2.291948924639
O  -1.414907088311  3.231142841212 -1.283906610935
H  -0.344560319645  2.265251863258  0.193130763705
H  -1.987157587665  1.665179614092 -0.164075128599
H  -1.157866292955  0.819192737572 -2.384552488041
H  -0.286884190936  0.070552708036 -1.015512231870
H   1.601157121487 -0.281744032357 -2.508340409313
H   0.757814720821  0.534853779220 -3.855740529383
H   2.475731468785  2.358690807609 -3.796807860205
H   3.212928896500  0.768035852915 -4.131681526584
H   3.096950824376  1.894806485336 -1.567715478884
H  -0.641769875179  3.510016821471 -1.789899196761
