383
pair_id=pair_1eed3bf4b6fc24a22592 start=3 nco_site=2 oh_site=1 attack_angle_deg=105.000000
O   6.071138798300  2.480874245000 -0.539966886600
C   5.281563264000  1.703290642200 -0.203729312400
N   4.583194840700  0.895553337000  0.323028101100
C   3.469566272400  0.097992287700  0.217823463600
C   3.141003666300 -0.720825069600  1.291776942100
C   2.027239290200 -1.535897111400  1.217504870200
C   1.230376574900 -1.552900220000  0.080976745700
C   0.000129982500 -2.417918638600 -0.002577497200
C  -1.230253681400 -1.553071685200 -0.084299228600
C  -2.021435998300 -1.526209840700 -1.224619472200
C  -3.134787785500 -0.710465627800 -1.297435226200
C  -3.468763238200  0.098981255200 -0.218056518800
N  -4.581846364100  0.897438299100 -0.321975352000
C  -5.282652338400  1.701065266500  0.207899688400
O  -6.073694902800  2.476057311700  0.546553031600
C  -2.680498724400  0.084975519400  0.931153113200
C  -1.572915706700 -0.735626567500  0.987803746500
C   1.567638803400 -0.726117648500 -0.985674162700
C   2.675451036000  0.094047662700 -0.927432521900
H   3.761402694000 -0.710428411900  2.174324307200
H   1.779230559000 -2.170944736200  2.055913696000
H   0.058433977900 -3.056457871800 -0.886664495400
H  -0.057740878700 -3.058561817600  0.879976911700
H  -1.769229849800 -2.154027086400 -2.067217719300
H  -3.750781892300 -0.692421148900 -2.182945547900
H  -2.943609239700  0.716629811900  1.766859046600
H  -0.960209384700 -0.742612630800  1.877475508100
H   0.950329509800 -0.725172817000 -1.872181069100
H   2.934211927200  0.733133578500 -1.758835180200
O  -2.909486762863  2.757402787188  0.944266576218
C  -1.672910622026  3.307824463711  1.327962401644
C  -0.561214666306  3.085716565472  0.303369283456
C  -0.701628048519  3.907854470227 -0.988915712561
C  -1.616256030333  3.296919640420 -2.052406835671
O  -3.009078365241  3.386338429007 -1.772006802939
C  -3.556087230251  4.669192196237 -2.053182242044
C  -4.955727982663  4.827374111652 -1.478264971376
C  -5.920391751416  3.786218436833 -2.028576189474
C  -7.331567467347  3.931488393233 -1.481786086739
O  -8.210498313456  2.921483174029 -1.959456676108
C  -8.571480189065  3.095822662807 -3.331411922044
C  -8.429410612805  1.817702231880 -4.145058868134
C  -8.844294720738  2.012613835649 -5.601748713375
C  -9.008556696287  0.707534633478 -6.368010593981
O  -7.786802599744  0.020442466845 -6.613769058867
C  -8.021610453090 -1.176935769387 -7.353526998397
C  -6.753994298244 -1.939551353370 -7.714265868398
C  -7.066474053269 -3.298564215985 -8.330460854538
C  -5.832285053165 -4.162156280186 -8.535388773697
O  -4.890111271285 -3.573579596974 -9.424945535385
C  -3.946715094631 -4.522666075112 -9.913931856145
C  -2.771257542927 -3.865132974401 -10.622786413800
C  -1.885328730283 -3.079428310718 -9.662367672858
C  -2.600374978370 -1.900722527208 -9.024448019560
O  -1.782906191516 -1.226440679247 -8.075340373794
C  -2.490394377028 -0.192738490449 -7.400094076582
C  -1.691531954363  0.383047171909 -6.242044362913
C  -2.450157226652  1.448965282183 -5.458619965567
C  -3.776943810197  0.919066295623 -4.934874100664
O  -3.646699825303 -0.359180997749 -4.333283156459
C  -3.092881515047 -0.335332559578 -3.026337366615
C  -4.015285671597  0.350894069560 -2.030340341301
C  -3.750340109808 -0.001704549028 -0.573287796090
C  -4.906574606230  0.479026036956  0.290357843313
O  -6.139738891815 -0.001164528718 -0.232442725430
C  -7.280218183859  0.507151358264  0.448635404027
C  -8.569469721007  0.017160561006 -0.191838703030
C  -9.830653506757  0.519120015854  0.503861518179
C  -10.045192638134  2.016060729716  0.346831906960
O  -11.303819886201  2.421637646899  0.871769243960
C  -11.525665488784  3.822324504326  0.759611139317
C  -12.984561494333  4.163510815787  1.015591478876
C  -13.447268875487  3.715059705205  2.394059347812
C  -14.960249207428  3.806176450370  2.524846320271
O  -15.589844657182  2.980055729526  1.552319246669
C  -16.986030957292  3.213559259399  1.404604405832
C  -17.507630902041  2.497757731710  0.167962795684
C  -16.717462692171  2.920781728246 -1.063965919369
C  -17.019488380523  2.092016127897 -2.300881948094
O  -16.152354857040  2.429593034809 -3.375032436382
C  -16.376039977491  1.664614004648 -4.550008790210
C  -16.225604905113  0.158339401669 -4.345700543802
C  -15.956806813085 -0.600955014140 -5.641997752959
C  -14.529420945215 -0.382103248676 -6.118578864569
O  -13.586386512478 -0.952119089602 -5.210945881589
C  -12.333203980308 -0.275488668764 -5.195497765094
C  -12.218237027737  0.708990935335 -4.041318081918
C  -12.373046775489  0.043303559401 -2.677060479507
C  -11.465788713243 -1.168967425214 -2.511357734348
O  -10.102679760963 -0.865309482332 -2.794092103361
C  -9.344212707077 -2.024240721246 -3.135897558890
C  -7.898081181412 -1.688201198018 -3.472158167277
C  -7.140691223131 -2.854189010615 -4.094764249964
C  -5.679231766569 -2.519362363852 -4.378983263913
O  -5.130388763099 -3.327366185531 -5.417162105613
C  -3.708750772884 -3.343321726599 -5.406271437952
C  -3.181370745186 -4.428986880314 -4.485699045474
C  -3.748449322599 -5.780242895128 -4.893113096898
C  -3.315515207622 -6.925143197597 -3.994410108443
O  -3.890163176948 -8.160896679236 -4.408855577068
C  -3.381330785889 -9.285601141697 -3.707056245922
C  -1.898519912379 -9.523694505938 -3.961969792616
C  -1.579989349619 -9.485650991742 -5.452113006817
C  -0.088228751032 -9.449910245733 -5.751073408894
O   0.223364793778 -9.487307184034 -7.137809457835
C  -0.390756653713 -8.440445396496 -7.879723464081
C   0.118061910755 -8.363136329769 -9.310248609524
C  -0.623584283488 -7.330964153181 -10.156741984169
C  -2.108853975168 -7.646952942369 -10.278721551044
O  -2.792403920174 -7.476099555026 -9.040988778266
C  -4.084043759841 -8.076731506205 -9.037099308410
C  -4.802451024231 -7.873814559074 -7.712491997376
C  -6.198881008713 -8.481532731892 -7.694469810258
C  -6.916234174895 -8.264391462295 -6.371508459325
O  -8.244460279862 -8.786936347290 -6.375722746514
C  -8.811160333674 -8.794608859204 -5.072854518720
C  -10.304220060098 -9.094006120876 -5.047964483181
C  -10.665896539255 -10.432138682970 -5.682163562015
C  -10.627810307076 -10.375280866647 -7.199776379962
O  -11.613721247015 -9.488240838019 -7.724981681297
C  -11.483681961408 -9.274100117755 -9.132682822918
C  -10.918777924214 -7.897563522354 -9.461284950749
C  -9.650112927111 -7.608017025402 -8.680439687278
C  -9.040674289979 -6.250352436700 -8.994462833802
O  -9.970116698642 -5.179571690286 -8.980212116664
C  -10.612104098835 -4.977209500596 -7.725588679375
C  -11.575247495174 -3.800325409001 -7.797675467715
C  -12.461755492845 -3.646326172558 -6.565172625559
C  -13.419450820077 -4.815864292784 -6.358812829434
O  -14.486491340632 -4.535925623059 -5.460999066522
C  -14.041501810920 -3.987194565850 -4.228441004763
C  -15.112135121853 -4.004404411412 -3.147080977422
C  -14.663927312848 -3.282299725455 -1.878179728874
C  -13.503355091502 -3.973804453572 -1.176622542209
O  -12.917273543086 -3.165983659139 -0.162006099510
C  -12.008517079663 -3.906924026822  0.651335302961
C  -10.936650456091 -3.026072866401  1.271236507041
C  -10.049817579319 -3.772954902633  2.258461375808
C  -8.895899460309 -2.906432949374  2.735727040437
O  -8.067209821295 -2.471491723642  1.667082158360
C  -7.144723478822 -3.468203077361  1.236899041800
C  -6.364129043123 -3.027648483387  0.008317172408
C  -5.252645538831 -3.988857472708 -0.395300844492
C  -5.798521639188 -5.320692007864 -0.884511098258
O  -6.707356593776 -5.145179200974 -1.962925963413
C  -7.023302815955 -6.354115257477 -2.635229346433
C  -7.777663841173 -7.347291115774 -1.767134755158
C  -9.040801441929 -6.753068661760 -1.151474889359
C  -10.042157476670 -6.234195819212 -2.180375817509
O  -11.347543091149 -6.083775880464 -1.633555034058
C  -12.095623241204 -7.296372964077 -1.670588002087
C  -12.853029145170 -7.465134413216 -2.979606563603
C  -13.491599424392 -8.838189277104 -3.144954319994
C  -14.318270223542 -8.893903952082 -4.419059097638
O  -15.364866610825 -7.929883176919 -4.367027260359
C  -15.861048609593 -7.551437787326 -5.644653288677
C  -16.903560505589 -6.454332392021 -5.502253634519
C  -18.081638856291 -6.914179710032 -4.655674964368
C  -18.929410316636 -5.750695487166 -4.164145383285
O  -18.213675568721 -4.953627263319 -3.228546378791
C  -18.991247551035 -3.892823344407 -2.683238549229
C  -19.034083688763 -2.669460631607 -3.584919610187
C  -19.802505091039 -1.493756667888 -2.986864326134
C  -19.271709220579 -1.047801131083 -1.627670160836
O  -17.888109911594 -0.773431886231 -1.627538658309
H  -3.043951719789  2.964326869727 -0.011453837315
H  -1.418318137716  2.855392431986  2.295010460429
H  -1.816024692045  4.379083664243  1.518033618349
H   0.402110306324  3.318937622477  0.777633147373
H  -0.508996762323  2.020121795279  0.054838070291
H  -1.038441764605  4.919288252816 -0.741324591501
H   0.295344576389  4.043711060939 -1.431360931522
H  -1.382487045558  2.233981038580 -2.174053566700
H  -1.452800493673  3.759753345318 -3.033135457796
H  -2.881273691686  5.435288642441 -1.656799424832
H  -3.571516045979  4.786873379339 -3.142415734109
H  -5.341739128147  5.834199352250 -1.679922585023
H  -4.910950765509  4.739764131639 -0.386631167155
H  -5.556048528113  2.781692808616 -1.794682200194
H  -5.930951791591  3.834918729822 -3.122532278827
H  -7.325361518346  3.865134084911 -0.388394586486
H  -7.759254415323  4.909586170889 -1.728241312208
H  -9.608908413523  3.449875628490 -3.347479639504
H  -7.971273611123  3.898182965135 -3.773513295283
H  -9.038792060757  1.036478762176 -3.678193563465
H  -7.398220734414  1.451819413879 -4.087605537185
H  -8.111663684411  2.645906767649 -6.114618436152
H  -9.786290602681  2.575224990940 -5.629851932202
H  -9.482285173591  0.888189854924 -7.340601404450
H  -9.662767203905  0.025945057933 -5.815447727126
H  -8.576694381443 -0.917438669758 -8.261964496827
H  -8.684694838018 -1.808761894443 -6.751927606720
H  -6.144506945860 -2.072731279549 -6.816744412453
H  -6.132646183489 -1.344766090361 -8.392845161548
H  -7.576423748228 -3.158080963713 -9.290335108554
H  -7.784587372467 -3.823756046243 -7.689829961590
H  -6.106052100250 -5.145078921151 -8.936148047597
H  -5.321339672459 -4.332211717196 -7.581413962291
H  -4.487746975221 -5.199563770535 -10.585587449139
H  -3.591433564641 -5.120137670041 -9.066471609541
H  -2.175645758643 -4.622427987045 -11.148559536763
H  -3.155643497196 -3.194204897150 -11.399061450452
H  -0.984996081985 -2.715020646336 -10.171921298446
H  -1.520341968951 -3.742279988567 -8.869360185127
H  -2.915738944717 -1.176272411714 -9.783406132814
H  -3.505791419438 -2.239043302067 -8.509401916753
H  -3.433805805469 -0.616995954649 -7.039671818892
H  -2.742632595124  0.584686834843 -8.129576861124
H  -0.739448487296  0.775830190062 -6.618582195388
H  -1.421668663915 -0.440464870006 -5.571003280882
H  -1.835881251501  1.799131228908 -4.621046662984
H  -2.619134055828  2.331454481412 -6.088110678794
H  -4.250127436041  1.611304314880 -4.230592121468
H  -4.492974723656  0.796524103457 -5.756179835867
H  -2.101321912530  0.127206483726 -3.057646240102
H  -2.935854370819 -1.380776671777 -2.737715876714
H  -3.969842850231  1.435870989905 -2.161318099438
H  -5.048324126402  0.072835504258 -2.272702678663
H  -3.655704731051 -1.089046640210 -0.475372211977
H  -2.794749065238  0.417123722604 -0.235843547031
H  -4.952352493717  1.573198441589  0.301726920651
H  -4.811289027423  0.143432864365  1.329409830570
H  -7.226211819315  1.600056504897  0.433232521228
H  -7.220629477250  0.188152443030  1.495196682879
H  -8.583549825303  0.321890933765 -1.244403681181
H  -8.553560884583 -1.078540732901 -0.204981051912
H  -9.801385488143  0.263988348716  1.568980147855
H  -10.713943804469  0.003908101905  0.108935163836
H  -9.260822656307  2.585999381380  0.855565284031
H  -10.016152870068  2.296468593494 -0.712314426592
H  -11.212964797284  4.143551925292 -0.241149782913
H  -10.872628648601  4.322382767324  1.483197966962
H  -13.170100566849  5.236295681170  0.881829535595
H  -13.598913273669  3.657763244206  0.261625135428
H  -12.942866765159  4.295769450912  3.175850713976
H  -13.139735079507  2.673497835661  2.544958543576
H  -15.307175412115  3.488624166689  3.514865485832
H  -15.294628551297  4.838006388158  2.372589143701
H  -17.144965511263  4.293646857136  1.315093593400
H  -17.489518689473  2.878962567617  2.318798026866
H  -18.579206928062  2.679174918566  0.021513347899
H  -17.400511631242  1.415754028380  0.308466518263
H  -16.881496112156  3.982609977663 -1.278961140773
H  -15.646319999165  2.837888812902 -0.845680319353
H  -18.055931724842  2.226556259837 -2.628525232210
H  -16.881865299910  1.030426317585 -2.075914560018
H  -15.651230259069  2.030028619870 -5.284636532786
H  -17.365736103124  1.917927857900 -4.946585977314
H  -15.397775083265 -0.024929357249 -3.652749395323
H  -17.119808733392 -0.230560920811 -3.846128179788
H  -16.108888739597 -1.677010771322 -5.493103137685
H  -16.678494074527 -0.295101146116 -6.409101620776
H  -14.357494357524 -0.834240818187 -7.102445418776
H  -14.315882885690  0.686559194862 -6.220457316093
H  -12.179574844642  0.210443255411 -6.166605409824
H  -11.558939545042 -1.045722734708 -5.118222880355
H  -11.247519491812  1.214743335047 -4.086861007540
H  -12.969726167815  1.499066025125 -4.159948409470
H  -13.417028975167 -0.253490848462 -2.527186628389
H  -12.156807069258  0.769806662843 -1.883846340938
H  -11.516260110917 -1.579394254258 -1.495982171353
H  -11.783123293758 -1.972902769663 -3.183741861918
H  -9.827427240570 -2.501472451800 -3.995451018934
H  -9.400838855895 -2.732828842323 -2.302085103124
H  -7.882628045179 -0.845527658510 -4.170578978412
H  -7.378223072138 -1.328548028852 -2.577707720037
H  -7.627176072356 -3.150184452612 -5.030720993301
H  -7.202326044189 -3.737502348611 -3.451739037294
H  -5.071688649471 -2.624740436325 -3.474100986738
H  -5.576945353122 -1.476681648109 -4.702271996372
H  -3.382233682114 -3.526039416234 -6.436083321365
H  -3.345348334649 -2.346108045780 -5.133471090632
H  -3.463834346000 -4.211630658229 -3.449982448529
H  -2.084861098972 -4.454823978807 -4.498564290953
H  -4.842895649666 -5.726503906886 -4.912651338227
H  -3.454113637465 -6.003204549658 -5.924499604672
H  -2.225231131893 -7.011849682160 -4.006995885309
H  -3.608576080069 -6.743258619571 -2.955638127332
H  -3.967969986152 -10.146303313381 -4.048152464673
H  -3.601353504804 -9.156547163675 -2.640932411792
H  -1.575719361082 -10.478241099547 -3.528017347718
H  -1.303956852734 -8.762831328607 -3.444078049673
H  -2.039347710864 -10.341314168629 -5.959600540737
H  -2.060191984541 -8.603190203858 -5.887437357393
H   0.376292080415 -8.553596100201 -5.325138127047
H   0.414440971262 -10.307805039638 -5.290974794147
H  -0.226412874375 -7.492287955827 -7.355918766912
H  -1.468702309301 -8.628331649556 -7.882011374605
H   0.021854363497 -9.353819174836 -9.769018951927
H   1.194783977964 -8.155187416681 -9.295803881515
H  -0.168803997732 -7.263872604665 -11.153692568545
H  -0.509671018791 -6.338501308518 -9.706693732478
H  -2.247854987441 -8.681461257663 -10.611309906255
H  -2.600396470632 -7.005123764293 -11.018643249303
H  -4.663583298695 -7.648711021826 -9.862191730159
H  -3.965836545706 -9.145171799820 -9.248285429525
H  -4.863739721413 -6.802189043618 -7.497998520760
H  -4.200666518664 -8.294865124650 -6.899797246067
H  -6.792319522815 -8.054668520860 -8.508997428366
H  -6.147715077647 -9.555074594512 -7.908119386244
H  -6.359578373722 -8.737899110676 -5.554530693677
H  -6.976771181743 -7.195616029305 -6.136956638356
H  -8.607927163738 -7.816930823875 -4.623321244093
H  -8.262840756896 -9.540895012072 -4.486985240800
H  -10.845761756739 -8.297897608371 -5.570930271461
H  -10.654831717446 -9.066489487987 -4.008607154978
H  -11.675516971937 -10.733825450487 -5.376361452344
H  -9.991806320035 -11.211602721222 -5.306348910702
H  -9.642450638078 -10.041339390242 -7.538915853546
H  -10.805078007626 -11.363658797128 -7.640090733508
H  -12.477386818906 -9.411823823921 -9.575885909723
H  -10.847507163453 -10.064159997617 -9.547877575732
H  -10.728161560406 -7.802725133665 -10.537331686616
H  -11.666753989345 -7.130825257128 -9.230780388729
H  -9.867941122830 -7.674899887154 -7.609079282857
H  -8.919045926410 -8.402139860426 -8.870875323536
H  -8.230416220848 -6.007413164305 -8.298598987187
H  -8.602107135450 -6.253981418745 -9.999086030123
H  -11.147531059431 -5.892765928140 -7.459248221362
H  -9.849078464335 -4.819376613416 -6.955761126291
H  -12.205564828634 -3.923750335136 -8.685811973803
H  -11.002411812608 -2.883028411276 -7.980894531471
H  -11.837172417242 -3.512437845702 -5.674949614325
H  -13.055115451064 -2.728823547007 -6.647428768749
H  -12.893766929987 -5.704756229207 -5.992495880408
H  -13.883623224119 -5.099275539722 -7.310142604625
H  -13.151720067435 -4.540560730712 -3.911908788686
H  -13.729198798629 -2.956349354468 -4.424877164014
H  -15.390192073765 -5.038900606269 -2.917424709481
H  -16.022618384407 -3.546247164380 -3.548939375513
H  -14.365488191852 -2.259222928883 -2.128174160314
H  -15.496167711544 -3.174645309765 -1.172347358696
H  -13.830769705299 -4.917958554175 -0.727151502946
H  -12.702761055182 -4.217911681423 -1.882630347925
H  -12.596992450333 -4.412784085310  1.424835499025
H  -11.546429351833 -4.689428614446  0.038512143563
H  -11.410360997784 -2.169093417999  1.763182741513
H  -10.319048747653 -2.595621010664  0.475392668828
H  -9.663251588511 -4.681423870606  1.784658467367
H  -10.649372504909 -4.121287692549  3.108690927684
H  -8.271120183740 -3.421385919246  3.474876408888
H  -9.278307537345 -2.002379241687  3.223198388358
H  -6.463509694160 -3.673955216620  2.069826445676
H  -7.693807773999 -4.392088124479  1.035157552003
H  -5.954889539486 -2.030582152052  0.201389871498
H  -7.059199259471 -2.901638386539 -0.828295459334
H  -4.651208619632 -3.540977100648 -1.195601570122
H  -4.565404327044 -4.140563127688  0.446021453102
H  -6.327043674999 -5.839487665103 -0.078721863236
H  -4.989624169407 -5.981769999540 -1.215088734654
H  -6.093475576652 -6.781804912907 -3.027544687248
H  -7.623148323865 -6.073607479438 -3.507706505048
H  -8.039319428893 -8.235059909925 -2.355406149485
H  -7.114993094331 -7.716888898642 -0.975418341027
H  -9.533430464755 -7.501382096533 -0.519383003496
H  -8.778656694762 -5.935995809109 -0.470501131477
H  -10.105217276252 -6.906318052290 -3.041321639024
H  -9.732039187974 -5.259395736069 -2.573917321563
H  -12.787815557151 -7.286684635026 -0.821017835215
H  -11.415477004985 -8.138222844659 -1.502646613528
H  -13.628532904867 -6.695150600333 -3.053306869321
H  -12.184490788042 -7.262345658956 -3.822358582674
H  -14.141022247500 -9.042966693286 -2.286388240636
H  -12.726271025230 -9.623086328039 -3.135590788537
H  -13.689548411894 -8.681857015210 -5.291227810879
H  -14.773366276723 -9.878953408521 -4.574302989825
H  -15.014935438471 -7.219615336144 -6.256966032187
H  -16.287012863175 -8.441559540278 -6.119971935636
H  -17.246621470489 -6.098265794139 -6.481379431566
H  -16.434618944220 -5.589873044614 -5.019296543198
H  -17.696464300932 -7.455005663886 -3.782977605021
H  -18.686422767617 -7.639368781785 -5.214193769482
H  -19.841307401714 -6.108467688595 -3.671831982887
H  -19.235828755020 -5.115674706968 -5.001442532267
H  -18.538832588095 -3.645983865694 -1.716789831334
H  -19.998771149733 -4.262729400977 -2.464142650547
H  -18.006814559484 -2.366390743928 -3.810581499199
H  -19.463051649201 -2.946716467390 -4.554907983033
H  -20.864772311716 -1.754408507172 -2.901130403397
H  -19.763377572707 -0.643393885017 -3.678925571456
H  -19.777191240305 -0.132484972265 -1.294444299838
H  -19.478050773042 -1.798850928766 -0.854550715708
H  -17.378745741689 -1.600417290836 -1.786823679237
