357
pair_id=pair_86897ffb45df49ff7132 start=2 nco_site=1 oh_site=2 attack_angle_deg=105.000000
O   6.071138798300  2.480874245000 -0.539966886600
C   5.281563264000  1.703290642200 -0.203729312400
N   4.583194840700  0.895553337000  0.323028101100
C   3.469566272400  0.097992287700  0.217823463600
C   3.141003666300 -0.720825069600  1.291776942100
C   2.027239290200 -1.535897111400  1.217504870200
C   1.230376574900 -1.552900220000  0.080976745700
C   0.000129982500 -2.417918638600 -0.002577497200
C  -1.230253681400 -1.553071685200 -0.084299228600
C  -2.021435998300 -1.526209840700 -1.224619472200
C  -3.134787785500 -0.710465627800 -1.297435226200
C  -3.468763238200  0.098981255200 -0.218056518800
N  -4.581846364100  0.897438299100 -0.321975352000
C  -5.282652338400  1.701065266500  0.207899688400
O  -6.073694902800  2.476057311700  0.546553031600
C  -2.680498724400  0.084975519400  0.931153113200
C  -1.572915706700 -0.735626567500  0.987803746500
C   1.567638803400 -0.726117648500 -0.985674162700
C   2.675451036000  0.094047662700 -0.927432521900
H   3.761402694000 -0.710428411900  2.174324307200
H   1.779230559000 -2.170944736200  2.055913696000
H   0.058433977900 -3.056457871800 -0.886664495400
H  -0.057740878700 -3.058561817600  0.879976911700
H  -1.769229849800 -2.154027086400 -2.067217719300
H  -3.750781892300 -0.692421148900 -2.182945547900
H  -2.943609239700  0.716629811900  1.766859046600
H  -0.960209384700 -0.742612630800  1.877475508100
H   0.950329509800 -0.725172817000 -1.872181069100
H   2.934211927200  0.733133578500 -1.758835180200
O   16.547949646133 -13.886214282299  19.526486552165
C   16.816670271648 -13.701205514670  20.902613702523
C   15.678352067327 -12.997389845214  21.627666428439
C   15.856705251189 -12.919542052887  23.136181257744
C   14.680092856183 -12.211071608117  23.788879405638
O   13.432538820005 -12.824443052191  23.490948183988
C   13.209871346654 -14.052258147677  24.187140479894
C   12.971787514109 -15.233811117860  23.255919437076
C   11.736987606533 -15.054724651442  22.374149022121
C   11.893265332918 -13.953010496405  21.338085054091
O   10.729623019144 -13.790162946014  20.538280792478
C   10.950959855289 -13.097366216572  19.314843212565
C   11.366332723519 -11.631457072803  19.478832585137
C   12.871553920612 -11.402382882047  19.638593789342
C   13.672625030860 -11.710016733275  18.380610462338
O   15.073068434486 -11.505911121941  18.570547599375
C   15.772444787238 -11.340169024107  17.339424626852
C   17.267760537259 -11.156567008922  17.543395102087
C   18.019627094541 -10.933171580892  16.235062369140
C   19.481147901529 -10.569503111709  16.455458471762
O   20.127692530070 -10.162862913144  15.253736886193
C   21.537422552229 -10.035946811495  15.415107221621
C   22.201845299129 -9.423628387393  14.191748467063
C   23.722722607995 -9.390746670182  14.286709592235
C   24.356684939147 -8.799371762718  13.036542794518
O   23.972046136648 -7.444076232100  12.841741670391
C   24.244724486320 -6.962039750910  11.532055161231
C   23.236407190568 -7.464138753251  10.508857996162
C   21.814101178897 -7.187674313090  10.973040827840
C   20.743123279558 -7.802993958430  10.087758467835
O   19.447059522767 -7.678127331455  10.667066127883
C   18.441228367358 -8.322317487359  9.890857442998
C   17.164321171393 -8.554951045203  10.683604020319
C   16.069607806023 -9.223880114840  9.856781787028
C   15.425399569654 -8.248503438254  8.884436217408
O   14.771586906187 -7.190898616770  9.573998231184
C   14.170347226594 -6.245391223103  8.693308358999
C   13.500919996105 -5.120218012874  9.465116279627
C   12.760216045165 -4.112569839796  8.586619082526
C   11.496791690245 -4.667772501649  7.947724307707
O   10.860153163539 -3.726857051936  7.085269853368
C   9.582680096207 -4.180949986336  6.643285541189
C   9.133169420966 -3.492089437513  5.362631058548
C   9.017431041260 -1.981836339901  5.525675707133
C   7.795887489137 -1.564010052136  6.333647458819
O   7.738799619299 -2.198720751039  7.605845693328
C   6.697579774777 -1.699861839266  8.447376586022
C   7.184314866009 -1.446527085300  9.866462961013
C   8.302647616816 -0.407789796196  9.917212538177
C   9.615307258010 -0.904981021015  9.330862623898
O   10.598329961117  0.121688231041  9.267307426833
C   11.860616738355 -0.371522275205  8.834114136040
C   12.899051099802  0.732914037681  8.716817849252
C   14.270807855683  0.232919029201  8.263987020845
C   14.854743644831 -0.819858927120  9.197403654068
O   16.211807295871 -1.143975849810  8.910510545943
C   17.142969952983 -0.209378754845  9.452303941189
C   17.749253410879 -0.672871725907  10.771006279342
C   16.705710494175 -0.930624560673  11.849596391511
C   17.301859975538 -1.359835860306  13.182522744419
O   16.306772000714 -1.643846075715  14.167494860657
C   16.123816247988 -3.032219021774  14.400093514997
C   15.482726640404 -3.754580553738  13.227155221566
C   14.100309110899 -3.192079198533  12.890030317624
C   13.006092119708 -3.704716445448  13.816087343479
O   11.700640518792 -3.253127299145  13.475127542750
C   11.320383019456 -3.584212027830  12.144074029687
C   9.823961201546 -3.808079622426  12.005148888634
C   9.319087617547 -4.912906434082  12.922488641067
C   10.028662776441 -6.237399177095  12.675164926271
O   10.019159868297 -6.598828241322  11.299997572194
C   10.862226906693 -7.714594112555  11.028272417769
C   10.846099954355 -8.097581962896  9.558165180624
C   11.848614659677 -9.188816629033  9.197166255106
C   11.505753614756 -10.540652576346  9.804120370575
O   11.473493454233 -10.540020564541  11.222427879980
C   12.763279489997 -10.421908367937  11.812791946456
C   12.718111449433 -10.636641344446  13.318085395197
C   14.086194846705 -10.518099512765  13.988764535564
C   14.650792792445 -9.105378633824  13.958743866471
O   15.921956535409 -9.012595190819  14.596361008895
C   16.460265920534 -7.696420245662  14.512737238351
C   17.871720148535 -7.596400643305  15.076023301621
C   18.455101618268 -6.188966224564  14.973328312768
C   18.716326498041 -5.755939810147  13.538154854171
O   19.100640552352 -4.387789553343  13.443626205644
C   19.783158289440 -4.089323966613  12.234113685451
C   18.999656290511 -4.463394447916  10.984537877631
C   19.704906950195 -4.077522536940  9.689705186132
C   18.885054718676 -4.438476937576  8.462570635122
O   19.557302764103 -4.104626151951  7.255536823333
C   18.898024272100 -4.590863063035  6.097865104120
C   17.513955807297 -3.992800451078  5.905038681648
C   17.545064051464 -2.474207073555  5.942320749480
C   16.161381821880 -1.873529204619  5.761342079464
O   15.588655051081 -2.243889071259  4.513013160228
C   14.352402167912 -1.595760453442  4.247955685923
C   13.190183353484 -2.147887852586  5.058888464639
C   12.854731713438 -3.594741506130  4.708986340747
C   14.001191396574 -4.571229114246  4.920562340798
O   13.561389480196 -5.922517599367  4.834540946432
C   14.623331799118 -6.864187171492  4.958863503064
C   14.094797766058 -8.269457719860  5.203791545916
C   15.192214759046 -9.308188507998  5.393777387961
C   14.608941496863 -10.673346923772  5.722472827842
O   13.811052032842 -11.168311366232  4.652698617904
C   12.853475767800 -12.137919636853  5.065015104909
C   11.568397039145 -11.508950536497  5.583935464627
C   10.506481978180 -12.537890441179  5.948864123915
C   9.211319215303 -11.881017795075  6.400288870523
O   9.392785206232 -11.095448793757  7.570162587870
C   8.218080794023 -10.383179062159  7.945891427076
C   7.993415768660 -9.126054014467  7.117983353270
C   6.851447352887 -8.264909079251  7.649510734624
C   6.633568611150 -7.004613833466  6.827641510117
O   5.564501615370 -6.214052188293  7.335095569749
C   5.462936191850 -4.943563866919  6.704918214140
C   4.851414925323 -5.001544913942  5.310191824045
C   4.928005010296 -3.671063742570  4.562195258475
C   4.210622720104 -2.526645221815  5.263432448478
O   4.442278527115 -1.282563806953  4.609847905671
C   3.839410241102 -0.187485598705  5.285439216558
C   4.186431082902  1.151652223459  4.648540361202
C   5.686261032067  1.428423682689  4.651657410216
C   6.415828913351  0.608965469024  3.596495324443
O   6.025958815690  0.985107215345  2.290281078118
H   16.057959028448 -13.102723515117  19.183180952650
H   16.999879797114 -14.692499621972  21.333039912748
H   17.754331362795 -13.141001144715  21.003590582027
H   15.553056153269 -11.989778180402  21.215208073828
H   14.743093554134 -13.517311955387  21.402589557077
H   16.796735126593 -12.406866873793  23.375693283532
H   15.958802500177 -13.930749365637  23.545532514803
H   14.785504408232 -12.147763890177  24.878208723037
H   14.611502393407 -11.180148049529  23.423104239206
H   12.335787022108 -13.893452908293  24.829560553742
H   14.054936918217 -14.242091823556  24.859559110009
H   12.880260871759 -16.155152101028  23.846153482145
H   13.852714364016 -15.377662734398  22.621117389085
H   11.495238773333 -15.989927527510  21.854253155306
H   10.862283833696 -14.836596049354  22.996938398988
H   12.736729569684 -14.174754023394  20.676084537252
H   12.088650101599 -12.996474704274  21.833598160277
H   11.680714838745 -13.662770089091  18.727011544063
H   10.001527264349 -13.168953299438  18.769185795967
H   10.824848029693 -11.218766384672  20.338634955062
H   11.021978992699 -11.049882177821  18.613959028954
H   13.266973453582 -11.994387008750  20.466074946873
H   13.068343178549 -10.361803441612  19.925140291725
H   13.533702987964 -12.747787504552  18.060623328476
H   13.334179335880 -11.074728870006  17.554690323120
H   15.354086915826 -10.463020282483  16.833758940127
H   15.569388132314 -12.211212564812  16.706783387452
H   17.683272314958 -12.022216614284  18.070827142891
H   17.429666273163 -10.306585082136  18.216039726986
H   17.530865008101 -10.140503051082  15.660454519329
H   17.950454690449 -11.820797166618  15.596145064219
H   19.568453329089 -9.744304981076  17.170979333328
H   20.029244007330 -11.418638143253  16.878705861512
H   21.732421812812 -9.427542555942  16.305232212345
H   21.941316341426 -11.034999484883  15.612858994809
H   21.816011641311 -8.409459496101  14.042139193494
H   21.894983654149 -9.982690382002  13.300619104170
H   24.021810626201 -8.797603235515  15.158143850412
H   24.104735985399 -10.402896662190  14.468223393200
H   24.061224955916 -9.379385147653  12.156837110665
H   25.451617606131 -8.827302127604  13.088083386552
H   25.274710484136 -7.227214345841  11.266500221427
H   24.206079461668 -5.868406160219  11.595266911050
H   23.411784842660 -7.004243042383  9.528430476759
H   23.364479637844 -8.540457996753  10.351429397838
H   21.686502237329 -7.568545562106  11.991263346452
H   21.653423068449 -6.109224218410  11.055181065390
H   20.729607153907 -7.334323469033  9.097578110279
H   20.944305680290 -8.869589312013  9.939140099062
H   18.838072017307 -9.277933807792  9.530605538394
H   18.253808010515 -7.704896164395  9.006941305454
H   17.406250837140 -9.153597930283  11.570699299358
H   16.797533959160 -7.596381426166  11.066813319721
H   15.291373072392 -9.621504781186  10.517747550011
H   16.480938943704 -10.089906481840  9.323967473727
H   16.175300282915 -7.804140989646  8.222232836204
H   14.687129677749 -8.748324342644  8.248419023991
H   14.947462995884 -5.849522184489  8.031189606598
H   13.448738400195 -6.776228454046  8.064955484386
H   14.269503417074 -4.616222274807  10.062624009408
H   12.807644136062 -5.558036611416  10.189869140008
H   12.484465900504 -3.231080183753  9.174112431575
H   13.429939874901 -3.742090301169  7.804926533653
H   11.721886328492 -5.558259589668  7.351205256572
H   10.775163852814 -4.960775213481  8.718487029421
H   8.877062227054 -3.988683372721  7.459273945891
H   9.633230873497 -5.267414938105  6.504523331989
H   9.851582975383 -3.728202825489  4.568261693338
H   8.175818613843 -3.902568536581  5.021813876393
H   9.922965506203 -1.616338051273  6.022855472813
H   8.996677674694 -1.489914854225  4.544082464883
H   6.872693961214 -1.815664121146  5.803280799550
H   7.790541626732 -0.479419727821  6.493205270147
H   6.298663587714 -0.776293348551  8.012998907400
H   5.882971534761 -2.432699841642  8.429493935671
H   7.544526281659 -2.388319964484  10.294898518462
H   6.342989247647 -1.131759046289  10.497717365175
H   8.482476241851 -0.079066198264  10.948304172486
H   7.992832471344  0.493870684829  9.377081118741
H   9.470721075592 -1.284856000711  8.315290403051
H   10.015106884647 -1.734534429417  9.923054724452
H   11.722605102265 -0.882882280892  7.874963120249
H   12.182155207311 -1.122215916577  9.562071628870
H   12.988211356732  1.232645707618  9.688210351559
H   12.522901663849  1.502040433543  8.031745793393
H   14.203889341265 -0.177009813847  7.251113086484
H   14.968781577945  1.074070894660  8.183497548375
H   14.287720154493 -1.753622116435  9.133492168464
H   14.778575270219 -0.486924555539  10.236268919914
H   17.921721678161 -0.061555743957  8.694180796274
H   16.644066235892  0.757733538553  9.575537102563
H   18.318289849908 -1.591863123911  10.597958948318
H   18.480204287588  0.060843648875  11.132562567459
H   16.096917428884 -0.033205703806  12.006745760561
H   16.008777600733 -1.697823048965  11.500372092639
H   17.944579394002 -2.238353719109  13.064129779399
H   17.940084557370 -0.566994190158  13.589292697246
H   17.101624054712 -3.455301794515  14.658138899745
H   15.498203164948 -3.120307370868  15.294894984194
H   16.145772449066 -3.681010486736  12.358366925240
H   15.401691656573 -4.828826093186  13.433454592382
H   13.839281030561 -3.436121992552  11.855361300130
H   14.123472189283 -2.097309949718  12.930835390205
H   13.190939124972 -3.387533894909  14.848134672491
H   12.988408226302 -4.800153292470  13.828669035785
H   11.667382303845 -2.774625012557  11.491657409118
H   11.859016723392 -4.489529065791  11.848745995760
H   9.298613257363 -2.870097443950  12.222445383116
H   9.581237756092 -4.061610820498  10.965350232254
H   9.447698605650 -4.609882986781  13.969099071807
H   8.240326007203 -5.049699104020  12.776660828191
H   11.073087048041 -6.180250513809  12.999933586132
H   9.565797077523 -7.053889745449  13.242147503444
H   10.531776551878 -8.553523455561  11.651103375345
H   11.877945879763 -7.454854284861  11.345446723493
H   9.833731343282 -8.408329709691  9.282992944048
H   11.039272277939 -7.198191580376  8.964109503565
H   11.917372680937 -9.282002107793  8.105919762072
H   12.844837822853 -8.881110841045  9.528472651639
H   12.204472262888 -11.320936274719  9.479760348653
H   10.511983319690 -10.863602521722  9.475338505281
H   13.427317161941 -11.155069657724  11.342141907530
H   13.157244997406 -9.429706597659  11.575933040992
H   12.021767633700 -9.916282643941  13.761905232407
H   12.277213723344 -11.621290328404  13.515702051637
H   14.798508402716 -11.199408999602  13.510164831877
H   14.024719572588 -10.850719161704  15.030743971403
H   13.969225274998 -8.407104597498  14.457121753809
H   14.766585499112 -8.756218899697  12.927434293895
H   16.441766296282 -7.396983267123  13.460537798499
H   15.783529832210 -7.020737012868  15.047568662785
H   18.522214253298 -8.307191425363  14.553179092863
H   17.857214334639 -7.924440092774  16.122084039516
H   19.390532117257 -6.112870565843  15.540947487183
H   17.772891528020 -5.475436840479  15.447135215705
H   17.818939774958 -5.882022601577  12.924952746281
H   19.500089988555 -6.377172482426  13.089308399581
H   20.752425673097 -4.596493943274  12.266374930342
H   20.003683729558 -3.016310955586  12.244183446046
H   18.011149028633 -3.993627993385  11.021177458129
H   18.803485788903 -5.540731377935  10.977066044484
H   19.924800886261 -3.004466670161  9.677917266937
H   20.682222729454 -4.567811426629  9.627254544274
H   17.923431057192 -3.914976106302  8.484603063904
H   18.667332875690 -5.511267710463  8.448032075699
H   19.543965588903 -4.336319392467  5.249717285866
H   18.867892105784 -5.685553103954  6.152644612990
H   16.833484017695 -4.363488698268  6.679601123473
H   17.080790063671 -4.328462183022  4.954966172132
H   18.206968771863 -2.105007943940  5.150768903111
H   17.992269211751 -2.135797481597  6.885208200961
H   15.496466409486 -2.215338886481  6.560663421324
H   16.198261694383 -0.779139653945  5.811290084821
H   14.156977451235 -1.721182532682  3.176974242460
H   14.490769811772 -0.520749613028  4.413633227252
H   12.303478973330 -1.516355323678  4.915343900610
H   13.421721315738 -2.077814836831  6.125767563872
H   12.514353444924 -3.663382381569  3.669506450642
H   12.007681066821 -3.937707530118  5.312593536412
H   14.791083721731 -4.412178635464  4.178196787887
H   14.451476567720 -4.428463118179  5.907447117493
H   15.274738458407 -6.551292132226  5.781584853598
H   15.222753207899 -6.822681052329  4.042855652031
H   13.442849666248 -8.565512119280  4.374021818619
H   13.439927853654 -8.254881875475  6.081967314511
H   15.791583371087 -9.380151918760  4.479263141506
H   15.886682149775 -8.984256239470  6.177574281952
H   15.394193434743 -11.413245366799  5.917947635241
H   13.991454811351 -10.615136061689  6.625087920070
H   12.642890667545 -12.765399195721  4.191501035675
H   13.311707405326 -12.793103654533  5.814206956278
H   11.780860169585 -10.877339577493  6.451946255181
H   11.176206955915 -10.822411570645  4.825026345323
H   10.883430315452 -13.184027652266  6.749778129269
H   10.321935475814 -13.199423773536  5.093386789872
H   8.440622249685 -12.629962351317  6.617674863792
H   8.820784359978 -11.234127883182  5.608389951348
H   7.359092173558 -11.060476473744  7.884762368681
H   8.324624571712 -10.126295596064  9.005566363380
H   7.798820216269 -9.393047991049  6.073836740433
H   8.919731564682 -8.541140524190  7.092456495011
H   5.922272990003 -8.845124854660  7.675235107323
H   7.043417620171 -7.985204536422  8.691712146970
H   6.413427080362 -7.261545818388  5.786787949545
H   7.542165124027 -6.393690238379  6.823012636739
H   6.458560038913 -4.488136133611  6.685158630537
H   4.852900726610 -4.319423627515  7.366594047240
H   3.809104186801 -5.330464295440  5.389601681717
H   5.353441036911 -5.780387842340  4.725823823790
H   4.524523064045 -3.773265672464  3.547552747786
H   5.976799716895 -3.391086210785  4.419667179796
H   4.553940852180 -2.427219782781  6.297660058444
H   3.130263197293 -2.704497866169  5.299358192715
H   4.176190887377 -0.209142915975  6.327795790769
H   2.756147111969 -0.356759405400  5.291876362637
H   3.829803292739  1.160245128409  3.612099147435
H   3.646900832628  1.957811980364  5.163047548487
H   5.874456993506  2.490237560502  4.450046434483
H   6.096072233383  1.233156093144  5.650004140449
H   6.194462624831 -0.457273791052  3.730261932160
H   7.503586628755  0.730751811739  3.685042787195
H   6.449633029501  0.407865791674  1.613410398599
