373
pair_id=pair_7d06ceb5c63af0dd1f38 start=1 nco_site=1 oh_site=1 attack_angle_deg=105.000000
C  -2.446703299700 -1.853063307200  0.000123365600
C  -1.098027931500 -1.205932880900 -0.000066001300
C  -0.977301580500  0.191279927900 -0.000010540500
C   0.267967642200  0.804165982100 -0.000123504100
C   1.417991736400  0.026293504500 -0.000147019000
C   1.317979512900 -1.362983689200 -0.000021543200
C   0.069352399300 -1.955586166900 -0.000065144800
N   2.632038095300  0.666782419400 -0.000316067500
C   3.817430935400  0.550232190400  0.000086689700
O   4.971044958500  0.643019233500  0.000273142600
N  -2.082630512100  1.005769681200  0.000064390200
C  -3.274049916600  1.044002541200  0.000022428200
O  -4.404742005300  1.293651270200  0.000058905200
H  -3.016326284800 -1.552982801300  0.880538512500
H  -2.353428997400 -2.935486979200 -0.000257502200
H  -3.016936278500 -1.552395575500 -0.879688210700
H   0.338560408400  1.879666146500 -0.000123025800
H   2.213426184600 -1.965662440300  0.000120232800
H  -0.000809997700 -3.033428387600  0.000035023700
O   3.121431671115  0.492451707905 -2.608024972012
C   2.758770046015  0.462344256997 -3.967023554647
C   2.577337678068  1.849537902254 -4.581651052146
C   3.881062206017  2.639215609932 -4.787414597241
C   4.381824488039  3.399789484412 -3.557957969830
O   4.962301120326  2.587822508496 -2.542906018391
C   6.299256358038  2.197830881492 -2.833507699860
C   6.789048245674  1.107021780272 -1.892877573940
C   6.745379746984  1.546836581024 -0.436141576589
C   7.244875356999  0.479998338329  0.525034774252
O   7.148334630535  0.880361285982  1.885618680261
C   8.118275384232  1.864879484218  2.250176248250
C   7.511287660341  3.039069359055  3.004259131100
C   8.563141825556  4.068905002753  3.410591536422
C   8.056556287840  5.092071794057  4.417503548651
O   7.099903865801  6.003246415173  3.888586831035
C   6.692519865639  6.940940077784  4.884006365303
C   5.715261559657  7.993684802401  4.378773225583
C   5.164856454635  8.847636911425  5.515468362748
C   4.052629026302  9.786209675193  5.076104608948
O   4.480231807863  10.726016694016  4.096643630592
C   3.580632178597  11.824259466412  3.976425366989
C   3.861064426772  12.676493014240  2.746961763445
C   3.552742935611  11.936382902359  1.450126878836
C   4.441150404919  10.723458011837  1.233043200324
O   4.088537344486  10.002940966898  0.058208842304
C   4.848522040511  8.808234262508 -0.083694159623
C   4.329769014164  7.932725084413 -1.212927711809
C   5.084333768254  6.614425342697 -1.347706533575
C   5.059350996758  5.821093917636 -0.049451390556
O   3.763830662342  5.771638339060  0.526719167201
C   2.881135104841  4.853212711810 -0.099965511362
C   3.329080116830  3.412374116505  0.092585514355
C   2.231360978735  2.375551755541 -0.101156947983
C   2.702664421101  1.025090701891  0.416522398008
O   3.183560752264  1.153374638607  1.749518841940
C   3.757285706474 -0.042724259308  2.262483341967
C   4.314946505732  0.168337556015  3.661388246644
C   4.933354414117 -1.085176937931  4.271977884500
C   6.211097164004 -1.522962041217  3.573956031719
O   6.841200652264 -2.596857792617  4.262368627707
C   8.029613690983 -3.044646910090  3.621371014555
C   8.838059631230 -3.943611829733  4.542559824367
C   8.049177436515 -5.164112652101  4.993584003660
C   8.760535684730 -5.894444823782  6.122787855920
O   8.925048960500 -5.031085586432  7.241814662581
C   9.822936162928 -5.522713857342  8.230642237157
C   10.147473559176 -4.425972395294  9.233415613955
C   10.692461599243 -3.196149004305  8.518233173130
C   10.831278042889 -1.976902316092  9.413889751915
O   11.200050549583 -0.825132895425  8.667490376889
C   11.318691928567  0.350331293519  9.454894685650
C   10.040924551385  0.725536282087  10.203070798935
C   9.992608515588  2.195000328917  10.612348033070
C   9.718729088243  3.088543942775  9.412753961562
O   8.413074185545  2.859587213065  8.882778751754
C   8.315975499543  3.111855814666  7.484398893681
C   8.419780280538  1.840258828942  6.655656529937
C   7.334007808624  0.822695903695  6.993248559775
C   5.936852922162  1.429040494196  6.971339835282
O   5.660352945324  2.102886488401  5.746720619205
C   4.620943586551  3.071139529088  5.878398604775
C   4.355612805260  3.812758529918  4.575750923491
C   3.449214779631  5.024784372858  4.749651577344
C   3.150295386277  5.727926911798  3.428670562848
O   2.808462846757  7.099791672147  3.610471882690
C   2.125651093270  7.648003862758  2.490356145580
C   0.629289342458  7.415083324148  2.594766790617
C   0.101434622423  7.987729382513  3.901251779511
C  -1.383513562005  7.756328042209  4.118686876101
O  -1.819479526564  8.294305718256  5.363510438024
C  -3.228572290477  8.255401502295  5.534790547605
C  -3.972965629743  9.129014870723  4.533253882304
C  -3.363461009251  10.523949932168  4.455176234000
C  -3.889174338836  11.349403819870  3.289733922771
O  -3.382577865702  12.677246878903  3.248275973236
C  -1.961723811686  12.735260831289  3.212091920707
C  -1.441703409462  14.139931666697  2.951796241686
C   0.079354190859  14.243286716038  3.039380619029
C   0.602453744884  13.874631608542  4.421847347362
O   0.441199934400  12.486960432929  4.698938922605
C   0.602685569408  12.178230567382  6.080139705971
C   0.438722551638  10.691692641887  6.354347543712
C   0.637142118315  10.332390945926  7.821042755813
C   0.483947681932  8.843027239143  8.086183936379
O   0.723935379056  8.501517952387  9.451113537222
C   0.344802384811  7.161541513578  9.732884283640
C   0.811725889080  6.657917918305  11.092233869390
C   0.308535131815  7.501433017872  12.257951862523
C   1.076668826437  8.804909862000  12.394885355734
O   2.447892589812  8.584074393111  12.719967020656
C   3.234674225404  9.777149197101  12.675965452780
C   4.143042378675  9.829395797131  11.453637133940
C   3.378859983135  9.554989907766  10.171531815145
C   4.245352698183  9.618155495610  8.923141007875
O   5.460656755291  8.894464061978  9.022862813498
C   5.294816406355  7.498084780742  9.246022238163
C   6.646226527043  6.800960956442  9.320901683348
C   6.570193148006  5.344449492729  9.769754367451
C   6.057856495251  5.177169719302  11.197028956157
O   6.323051142555  3.897617016195  11.758658160527
C   5.913592968945  2.829279918454  10.916446381959
C   5.872057500290  1.487429528583  11.633107885071
C   5.570703219078  0.332321193543  10.680560706388
C   4.174932091782  0.405145350808  10.077395091940
O   3.996706390067 -0.505390640312  8.998195225730
C   2.627708395168 -0.610528469217  8.609420609603
C   2.469224023392 -1.016194758130  7.153607471077
C   1.020859845336 -1.277691235045  6.762737839146
C   0.883361985415 -1.523922239058  5.269206966792
O   1.339002041955 -0.423683323300  4.494759590422
C   0.385354553366  0.631361114884  4.411634447305
C   0.946070024677  1.848846888231  3.693194481096
C  -0.083015310009  2.942828568109  3.435486772530
C  -0.566414275050  3.587819079828  4.724441115691
O   0.517004219465  4.106229510029  5.484190635633
C   0.106044543875  4.958072303283  6.541931739810
C  -0.696372099963  4.242083127881  7.615493145446
C   0.030014135902  3.026574712354  8.183433566426
C   1.384854829403  3.354061817737  8.806120442824
O   1.838579893641  2.326616922449  9.680283632912
C   1.315783095196  2.464528036737  10.999014489041
C   2.188320527985  3.353040922504  11.873598392779
C   1.559222593120  3.696523115616  13.217714203512
C   2.530167080957  4.491067551786  14.075500692144
O   3.703336993382  3.724235668343  14.326595463151
C   4.840356689621  4.508197665507  14.664730871546
C   6.065120254088  3.621573750968  14.821578595547
C   5.863682871551  2.585017024357  15.917478561083
C   6.874840571210  1.451602543134  15.834141683962
O   6.666742870997  0.663026428475  14.668902421577
C   7.543184272849 -0.455847351596  14.583721998767
C   8.904583510842 -0.095976393277  14.010516097183
C   9.835327759290 -1.294318743660  13.842849344893
C   9.248048072416 -2.404780061215  12.976819548936
O   8.801718613397 -1.957053319173  11.715884845588
H   3.805140944802  1.195776620568 -2.497681844814
H   1.832799104271 -0.123750358171 -4.028382673888
H   3.519977839987 -0.107430304380 -4.514859864858
H   2.065079478651  1.739009139898 -5.547408892789
H   1.891525902488  2.432499681927 -3.957307829557
H   4.660800181332  1.964202247352 -5.153623266339
H   3.731000876645  3.363268522932 -5.600678500560
H   3.550726667031  3.943124728969 -3.096062353233
H   5.126380059843  4.156697439696 -3.832710092356
H   6.351967556022  1.867969890392 -3.876488845738
H   6.927096468334  3.091609671946 -2.746946859492
H   7.808731686504  0.801385302399 -2.157829431033
H   6.168390244521  0.212741442304 -2.020905668598
H   5.721726047928  1.815533215681 -0.159628750007
H   7.322553609646  2.469140825558 -0.311850099840
H   6.657041368256 -0.437736200863  0.414758312068
H   8.284927174645  0.206155271083  0.316147825363
H   8.872209597881  1.359809174256  2.865282888141
H   8.643738820467  2.216441162818  1.355874186027
H   6.993513389355  2.655696580607  3.890009766707
H   6.731285818010  3.509935910982  2.395649647703
H   8.937026673784  4.588186856063  2.520984880230
H   9.431580888280  3.543056733883  3.827694086190
H   8.888105030270  5.686702236570  4.814906605578
H   7.590984882019  4.584867419161  5.268308137122
H   7.588658551586  7.422906663961  5.290650271124
H   6.243635344936  6.371768442465  5.705805196237
H   4.891843956204  7.500937671823  3.855380251836
H   6.194213232356  8.625067872212  3.622285578447
H   5.977604645575  9.430381000143  5.963790260795
H   4.800979943413  8.188578861000  6.312436059414
H   3.654885839440  10.346596289979  5.930189211948
H   3.220571410023  9.218608177474  4.645337110758
H   3.665817328707  12.414042690292  4.896711442356
H   2.559544093484  11.427747421295  3.937138443088
H   3.283338432373  13.608552814370  2.793691999491
H   4.914867123715  12.976347621257  2.756292882297
H   3.648833344187  12.605928424027  0.586696425008
H   2.505756093177  11.611935356635  1.449178082217
H   5.493478528808  11.017705467094  1.153521042850
H   4.363921670267  10.038672177541  2.084287260607
H   4.801742807040  8.269991598128  0.869212058553
H   5.895772829198  9.084289176069 -0.248675547388
H   4.357255435956  8.498515473542 -2.151888786125
H   3.269047598823  7.728936582427 -1.026823606592
H   4.643336512373  6.017062057601 -2.154030740714
H   6.120785148510  6.802328232393 -1.654398486520
H   5.444393046922  4.804116980029 -0.178330610269
H   5.707329389210  6.290445327351  0.700277377519
H   2.772120098073  5.114140504819 -1.157389490955
H   1.897654244973  5.007600299593  0.358120890094
H   4.169500516402  3.187928410082 -0.570522936560
H   3.727313010331  3.310722522207  1.109591922066
H   1.339816826600  2.683678119687  0.456573549921
H   1.926239645196  2.319157543849 -1.152898670798
H   3.522760396217  0.639575114847 -0.198504793024
H   1.901866309256  0.276851921480  0.402656511893
H   4.542849831282 -0.365992879860  1.572568854130
H   2.981718978211 -0.816729968237  2.266095104421
H   5.061658233480  0.969864784850  3.630932053083
H   3.508583798991  0.544275244437  4.301261028906
H   4.209830272536 -1.907841876801  4.259261962413
H   5.161961300138 -0.919645243190  5.331199316195
H   6.013232502488 -1.842865544828  2.545662635795
H   6.922965958846 -0.691054889902  3.524598716202
H   8.610018999312 -2.166170709040  3.314939220903
H   7.736532618307 -3.577795401766  2.710355400620
H   9.779051258937 -4.251418300661  4.070358272765
H   9.123739936890 -3.367402167405  5.430277769428
H   7.856439888752 -5.831533872409  4.144911987958
H   7.065602414666 -4.833881478150  5.348163020506
H   8.204126580436 -6.778168510588  6.455618964118
H   9.750195084182 -6.230753403294  5.795472065955
H   10.735137666600 -5.860690261217  7.727132590879
H   9.364497780084 -6.396376965347  8.707875767197
H   10.854443122945 -4.775525214281  9.995414090745
H   9.233123523695 -4.151427396112  9.772430367274
H   11.655162606351 -3.422040578600  8.046227975136
H   10.022886173165 -2.940874662328  7.688552351073
H   11.576190206607 -2.141388414050  10.199838965691
H   9.876230122604 -1.769940482740  9.905391158695
H   11.608086237119  1.145228245389  8.759952487201
H   12.162815659028  0.224534372482  10.142331996977
H   9.178755794897  0.510228844925  9.563243721551
H   9.928855997852  0.074982255373  11.077505811875
H   9.199897982306  2.359659644280  11.352410078903
H   10.931534917693  2.475323553436  11.104956942001
H   9.788338571998  4.150759806471  9.675113463939
H   10.454171030780  2.909681892173  8.622089269047
H   9.077392504842  3.849102100513  7.202452334992
H   7.349366112511  3.598095191121  7.317201700055
H   8.359267776885  2.091213429129  5.590991226667
H   9.410586689445  1.392001927159  6.798471584638
H   7.531257197138  0.385047198745  7.978136479703
H   7.377773907501 -0.014222945142  6.285147995916
H   5.160917964740  0.669043421164  7.120720117588
H   5.824264712114  2.147925992673  7.789655925856
H   4.917948536355  3.779927099196  6.659094961212
H   3.717769187203  2.562687454362  6.233784802482
H   5.310232332487  4.144722768390  4.155476696772
H   3.937913752444  3.126611648705  3.831187684327
H   3.918427815334  5.738827781110  5.435419011585
H   2.513514793385  4.735888816151  5.238044473925
H   2.344613584567  5.218988921959  2.889333868633
H   4.027309711471  5.705061470649  2.771035227043
H   2.343424367423  8.721727987275  2.476108851694
H   2.554668785917  7.227994230293  1.573594336352
H   0.413450515815  6.342058466234  2.552700920069
H   0.103118952483  7.860663687251  1.741672812692
H   0.663036489161  7.561735710894  4.740427041050
H   0.305470444564  9.063470850200  3.936652363322
H  -1.951645527185  8.219160870204  3.306647698780
H  -1.621960196354  6.688157516198  4.105693287253
H  -3.419221993659  8.602846555619  6.556668737835
H  -3.553465792788  7.209331176347  5.491592849632
H  -5.038530639658  9.192889385330  4.786562736765
H  -3.946103403147  8.665016383041  3.540976860433
H  -3.528419982115  11.062531453254  5.395086684961
H  -2.276497066674  10.423680335545  4.369769568707
H  -3.656763804856  10.869779529420  2.332380592827
H  -4.980751419905  11.429026043135  3.339441468088
H  -1.598628027907  12.037738904772  2.449197835850
H  -1.593906233268  12.379861524275  4.179394808434
H  -1.899854069455  14.821818164374  3.677266706807
H  -1.800162854676  14.477820541041  1.971939239176
H   0.404562358476  15.256820520190  2.770632172634
H   0.534798676919  13.575210689467  2.299957261541
H   0.070255893368  14.445533665803  5.190599607654
H   1.667222765166  14.111054968025  4.528682579231
H   1.593274761744  12.523772314207  6.395066792451
H  -0.134432644346  12.755593957126  6.648862344329
H   1.149905583043  10.132553853371  5.738127199754
H  -0.551081485346  10.363193468713  6.019269656778
H   1.628209666062  10.663809962094  8.146287458869
H  -0.071122847771  10.887496511250  8.446322512227
H  -0.525379856028  8.510464235163  7.817506410118
H   1.182848021291  8.267834516039  7.468404154407
H   0.747804403602  6.533450657115  8.931429683551
H  -0.747791175190  7.114051069376  9.663428100316
H   1.906920200810  6.637558218495  11.118392821442
H   0.486480083289  5.617380159723  11.216514575153
H   0.409636060373  6.944418636365  13.197833150295
H  -0.764339696378  7.694605869910  12.136204932445
H   1.026984096855  9.370663290651  11.459513421630
H   0.649122162960  9.438648562565  13.180869204814
H   3.816120151518  9.817878104059  13.605001474876
H   2.559646857005  10.640435293861  12.695326163996
H   4.651136799128  10.799346341554  11.388510356268
H   4.943848644031  9.089391708908  11.561300448320
H   2.906354419523  8.569358041009  10.242269865690
H   2.546195814174  10.262866753583  10.088246035668
H   3.703253822361  9.254086655568  8.043739614749
H   4.529935047372  10.655133672988  8.710276658342
H   4.742002481034  7.360124004143  10.179417347330
H   4.676012775225  7.079791983505  8.444856211333
H   7.286188175766  7.361473254707  10.011984282142
H   7.142042061662  6.881286274267  8.345781934021
H   5.939584434018  4.776488958030  9.076731573456
H   7.562773400085  4.884615193358  9.706587593685
H   4.978705510056  5.356658039229  11.259299561131
H   6.533408666083  5.909008317650  11.859651545204
H   4.934966377535  3.083362201459  10.497101064450
H   6.621355077618  2.782616279467  10.082385539875
H   5.129284815756  1.519977784087  12.437762716201
H   6.832239085549  1.329949651129  12.136724225196
H   6.305510672597  0.328947377545  9.869206357170
H   5.693451089168 -0.634267738338  11.183603136393
H   3.413887547835  0.199612893756  10.838459557920
H   3.966795132060  1.404226934925  9.680530926654
H   2.152178522542 -1.339994196156  9.274440389332
H   2.136667352895  0.352882950548  8.788607254279
H   3.079721422628 -1.904361151689  6.955415814374
H   2.886644486669 -0.231496956188  6.513218837777
H   0.404429312893 -0.422169677374  7.058262102278
H   0.628678336095 -2.129088610260  7.332832836052
H  -0.150166281256 -1.749416351202  4.981388930748
H   1.487897642891 -2.388157944620  4.971195821227
H  -0.493319365400  0.245865176348  3.882976477343
H   0.062343654112  0.894026196641  5.422786159954
H   1.392609528367  1.515373084172  2.750701509661
H   1.774428291940  2.258219336130  4.280696502973
H   0.356970727798  3.719383393429  2.798164768592
H  -0.928903368828  2.534763010482  2.868835036464
H  -1.095361047072  2.858065760450  5.345292283692
H  -1.269015807703  4.403132896070  4.518928905013
H  -0.451369868777  5.797206163071  6.110015080169
H   1.020954414573  5.384797294403  6.966856850458
H  -0.937898875900  4.937571820779  8.428278852993
H  -1.666583231792  3.938480297789  7.204317268891
H  -0.599265800120  2.535473075982  8.935113317276
H   0.173891637303  2.274548537026  7.399973886454
H   1.342539310227  4.291053162212  9.369333687803
H   2.149098742711  3.494670698253  8.033175519700
H   1.230457403847  1.460585602235  11.430074402531
H   0.296150629704  2.859525090008  10.937035482167
H   3.153573509268  2.863322716474  12.041454430130
H   2.437553765164  4.272412109321  11.334212451369
H   1.291821383138  2.771607469973  13.741018271260
H   0.619321442548  4.242586240921  13.075308075884
H   2.819275847551  5.417279169355  13.566107479789
H   2.095384723269  4.770206939452  15.042237998246
H   4.988276142599  5.255853061699  13.877284506835
H   4.618657531423  5.043316357435  15.594347763259
H   6.967612793403  4.215221883361  15.011974723650
H   6.244085564322  3.104968909069  13.872086858661
H   4.857856197486  2.159850058896  15.817485637882
H   5.887749935634  3.068370527406  16.902057756664
H   6.797496810840  0.790243842726  16.705090785936
H   7.895662028230  1.846062264514  15.811006268388
H   7.038843489605 -1.193314119149  13.950148567840
H   7.635678376445 -0.915041405975  15.573935595251
H   8.756936802527  0.398409748492  13.045197858834
H   9.377323436067  0.663599790765  14.644016481355
H   10.099156952375 -1.695644907665  14.829273595364
H   10.781393956731 -0.961149413390  13.398379391031
H   9.994132474405 -3.187652375162  12.790207056158
H   8.413535916728 -2.905232022810  13.484267681705
H   8.033446906936 -1.351401546194  11.823926272107
