47
pair_id=pair_90a17c3807fb14954fff start=2 nco_site=1 oh_site=2 attack_angle_deg=105.000000
C  -0.000459126700  0.000735647000  0.522920831700
C  -0.992010663100  0.785756250600  1.378015788600
C  -2.016019424300  1.545821546900  0.531210324300
N  -2.900118248500  0.690267334900 -0.172920072400
C  -3.027304416400 -0.361792352400 -0.706570253900
O  -3.350981806000 -1.330304924500 -1.258230835400
C   0.991685933700 -0.781037848400  1.380304733300
C   2.015050216700 -1.544161560500  0.535524113100
N   2.899661976200 -0.691079752300 -0.170947158200
C   3.028001394800  0.359617411700 -0.706957544600
O   3.352420678500  1.326287571100 -1.261459476700
H   0.543752107700  0.694726014500 -0.123116924700
H  -0.545127995300 -0.695790143500 -0.120004612200
H  -1.519839110600  0.103171708700  2.047840451100
H  -0.453194586000  1.512088430100  1.989342102200
H  -2.639266568200  2.176501823800  1.171880418400
H  -1.502500947100  2.189849824200 -0.192137373200
H   1.520081193200 -0.095964201300  2.047135765000
H   0.453279376600 -1.505025608900  1.994762298100
H   2.637854627800 -2.173717065300  1.177729304000
H   1.501047115700 -2.189637061700 -0.186196264700
C  -8.154536292043  4.055419777254 -3.596555650654
C  -7.841747421459  3.553506836264 -2.190339728656
C  -6.659921931134  2.585039427545 -2.219210094423
C  -6.968607014815  1.419532848344 -3.159428983196
C  -7.281371297589  1.921493877646 -4.565627242425
C  -8.463259130416  2.889873129465 -4.536707542061
C  -8.792036970756  3.398985369764 -5.944909878806
O  -9.924528269495  4.233752823437 -5.980592088812
C  -6.331427986278  2.075866999278 -0.810965643230
O  -5.199297615969  1.240623363216 -0.775195434192
H  -9.003432631573  4.740969000762 -3.572324932576
H  -7.295530741280  4.606595922608 -3.986017012708
H  -8.714886962746  3.041799585183 -1.778792764055
H  -7.614090068031  4.399677939807 -1.538331419352
H  -5.780838232671  3.119840730576 -2.602999303823
H  -7.827609710540  0.868312756512 -2.770022567223
H  -6.119685428708  0.734012538971 -3.183662318571
H  -6.408259713947  2.433299708694 -4.977111924868
H  -7.508940802915  1.075350623975 -5.217697175584
H  -9.342229401296  2.355004725451 -4.152751838963
H  -8.926853620799  2.542185461170 -6.622821593352
H  -7.970147229643  4.010081066936 -6.325480463263
H  -10.675520432265  3.747511198213 -5.622003043588
H  -7.153585138296  1.465098132846 -0.430448357537
H  -6.196321833189  2.932619977613 -0.133051667712
H  -4.448068348557  1.726543642201 -1.133741077126
