214
pair_id=pair_5122a20522ecb6d42280 start=1 nco_site=1 oh_site=1 attack_angle_deg=105.000000
O   6.071138798300  2.480874245000 -0.539966886600
C   5.281563264000  1.703290642200 -0.203729312400
N   4.583194840700  0.895553337000  0.323028101100
C   3.469566272400  0.097992287700  0.217823463600
C   3.141003666300 -0.720825069600  1.291776942100
C   2.027239290200 -1.535897111400  1.217504870200
C   1.230376574900 -1.552900220000  0.080976745700
C   0.000129982500 -2.417918638600 -0.002577497200
C  -1.230253681400 -1.553071685200 -0.084299228600
C  -2.021435998300 -1.526209840700 -1.224619472200
C  -3.134787785500 -0.710465627800 -1.297435226200
C  -3.468763238200  0.098981255200 -0.218056518800
N  -4.581846364100  0.897438299100 -0.321975352000
C  -5.282652338400  1.701065266500  0.207899688400
O  -6.073694902800  2.476057311700  0.546553031600
C  -2.680498724400  0.084975519400  0.931153113200
C  -1.572915706700 -0.735626567500  0.987803746500
C   1.567638803400 -0.726117648500 -0.985674162700
C   2.675451036000  0.094047662700 -0.927432521900
H   3.761402694000 -0.710428411900  2.174324307200
H   1.779230559000 -2.170944736200  2.055913696000
H   0.058433977900 -3.056457871800 -0.886664495400
H  -0.057740878700 -3.058561817600  0.879976911700
H  -1.769229849800 -2.154027086400 -2.067217719300
H  -3.750781892300 -0.692421148900 -2.182945547900
H  -2.943609239700  0.716629811900  1.766859046600
H  -0.960209384700 -0.742612630800  1.877475508100
H   0.950329509800 -0.725172817000 -1.872181069100
H   2.934211927200  0.733133578500 -1.758835180200
O   3.584262697644  1.483041604723 -2.291948924639
C   2.695972578368  1.367773249990 -3.384828338693
C   3.352453158800  1.686901302604 -4.722196062912
C   2.381048816362  1.677315623037 -5.897298490668
C   1.377225255146  2.818230085143 -5.815822705412
O   2.028508348487  4.075298770550 -5.681991194031
C   1.115949245085  5.169183337859 -5.681402047588
C   1.839195861398  6.503192026341 -5.593200371982
C   0.907986341408  7.707300303605 -5.637130163383
C   1.701739742411  9.002802282910 -5.678772753271
O   2.559069413475  9.043666663854 -6.815808229764
C   3.528776061857  10.079736196462 -6.737264196170
C   4.454701806031  10.083685971256 -7.944988614587
C   5.081820799372  8.719711064059 -8.200649328009
C   5.849498364159  8.203221716467 -6.993083806033
O   6.787915063189  9.158545033084 -6.512194699412
C   7.190789016412  8.910268574372 -5.171069009972
C   8.098521176155  7.697161324472 -5.025709679657
C   8.410903946315  7.351049829626 -3.572491142801
C   7.186182855684  6.791327388939 -2.865163078560
O   6.683083681662  5.647011872592 -3.545864702543
C   5.272350385029  5.499829764151 -3.462506918117
C   4.726676202922  5.485385596855 -2.032347976162
C   3.443921411275  4.673552514577 -1.914126155469
C   2.789197795375  4.815709732415 -0.547424817903
O   2.239744565343  6.114751840570 -0.338839702715
C   0.824426180503  6.168217669032 -0.500532334766
C   0.338842179943  5.795455938962 -1.893157381666
C  -1.180131321217  5.768110958697 -2.024857535141
C  -1.808502843828  7.141309375384 -1.865392588665
O  -1.290336346760  8.081439720961 -2.799997674614
C  -2.032524828012  9.297509558021 -2.787806029560
C  -1.339271171870  10.424941823585 -3.529154578917
C  -2.110791839692  11.742116090684 -3.466239436183
C  -2.391816945417  12.184623278746 -2.031938019858
O  -3.490996611562  11.488830580131 -1.440241728948
C  -4.714296763468  12.200618439121 -1.597968476971
C  -5.951996098703  11.401805067355 -1.207226542111
C  -6.147664334616  10.159834810619 -2.076493433859
C  -5.338247438165  8.977504086567 -1.568308473114
O  -5.891288275615  8.432143735304 -0.377641440255
C  -5.109713802796  7.358644625703  0.137107106632
C  -5.741242246921  6.738118987415  1.372918184219
C  -4.873513467625  5.667801733379  2.028243684345
C  -3.494461248851  6.199541432543  2.401697316703
O  -3.544521826565  7.490344411650  2.987751790588
C  -4.065445959981  7.498300569180  4.307183128122
C  -4.082818339827  8.898803957007  4.904550083349
C  -5.001944262372  9.857544663212  4.155971276259
C  -4.483503341345  10.198250308720  2.767361300271
O  -3.169397806208  10.738055077348  2.814329854301
C  -2.738662133974  11.261799632383  1.561479824196
C  -1.220718379677  11.374584726222  1.501649187726
C  -0.536649279964  10.023543560615  1.305086986679
C  -0.893306674270  9.001419036617  2.374145986592
O  -0.179103183138  7.777514472594  2.253326267699
C   1.203248851332  7.917747803418  2.564192479933
C   1.870836309567  6.587228932833  2.882979501081
C   3.306847618033  6.749414806037  3.377917257618
C   4.245145870224  7.343833267205  2.336491865629
O   5.523216936053  7.634411133444  2.888824250466
C   6.409566486874  8.236967462639  1.957854052651
C   7.022874657297  7.233716722221  0.994334121058
C   7.701445688715  6.093752615219  1.735542934745
C   8.423823954591  5.137949536599  0.799512538447
O   7.546194081375  4.514959115918 -0.130055396788
C   8.240720596456  3.609655183188 -0.984978311099
C   7.314255859600  2.875434514113 -1.941090520425
C   8.049154779091  1.900952648567 -2.851538757951
C   7.092306858710  1.146477815367 -3.763666569717
O   6.167447181286  0.353315207063 -3.049647275448
H   4.452772115990  1.068875994933 -2.525621255201
H   1.859674557795  2.047566422967 -3.186865234303
H   2.275787448152  0.354233453394 -3.387387126035
H   3.825283628953  2.672579838862 -4.657935184273
H   4.172386617103  0.979060287215 -4.894740818068
H   1.864247597606  0.711380752005 -5.950502474118
H   2.940804329337  1.771058007785 -6.836275709115
H   0.743922999389  2.853068295051 -6.710180950399
H   0.710157002933  2.695683311789 -4.956093459689
H   0.425191541820  5.042313089465 -4.841352160109
H   0.520483071757  5.116457467232 -6.599482001313
H   2.445173712403  6.531337915386 -4.681386762077
H   2.561579742675  6.571873480726 -6.414888396895
H   0.222847311147  7.692149274110 -4.780477022250
H   0.275335534385  7.645281696575 -6.529770968563
H   2.320263916830  9.095582889412 -4.779131388183
H   1.047863367738  9.881417197884 -5.719115840584
H   4.102442555694  9.929437230729 -5.816193688694
H   2.999902589754  11.034518277459 -6.633639304190
H   3.891431774105  10.403981713021 -8.830328934634
H   5.246509650488  10.829953941396 -7.803395813697
H   5.759769658031  8.778526068371 -9.061247818800
H   4.300131604564  8.001808126275 -8.479318783639
H   5.156113836632  7.963708013915 -6.179261484587
H   6.391527754813  7.280836730176 -7.231001617395
H   7.700638837276  9.813377024328 -4.816987794336
H   6.287759839430  8.811886989491 -4.560187048068
H   7.625571038073  6.828914992026 -5.496611704281
H   9.019831700690  7.872422922931 -5.594487858388
H   9.209970487073  6.600687818650 -3.532498922528
H   8.795955971373  8.233303732125 -3.047171830693
H   7.415887104518  6.487531597671 -1.837584287361
H   6.393318522624  7.544101408628 -2.808279536242
H   4.805902137434  6.286261232982 -4.066349431525
H   5.040165508579  4.555063854150 -3.966282402178
H   4.554313995336  6.508533466917 -1.678298828886
H   5.482408552189  5.071582283851 -1.354770162967
H   3.661622586500  3.620188958204 -2.124003770063
H   2.747545625557  4.990869961357 -2.695862009569
H   3.529927058662  4.646247449134  0.242587819294
H   2.000816173686  4.069382254662 -0.392534005514
H   0.520560025861  7.189385062376 -0.245515889595
H   0.371864531609  5.517108741026  0.255367223111
H   0.759569541443  6.502604091916 -2.616165035550
H   0.740481130403  4.813111666009 -2.164989566841
H  -1.457547409974  5.370968561977 -3.009209866558
H  -1.602978390092  5.070223791446 -1.291401395163
H  -1.630371798433  7.537920485996 -0.859980179076
H  -2.894840014277  7.091299140979 -2.002441970251
H  -3.015387247386  9.097422508108 -3.227612998148
H  -2.192706017631  9.581769481548 -1.742355204069
H  -1.173083286052  10.122494089552 -4.569860276324
H  -0.338447499423  10.559321016832 -3.102468276710
H  -1.554078261725  12.522386996654 -4.001907173960
H  -3.063082083877  11.638509590768 -3.997712325895
H  -2.594731145467  13.260827538984 -1.970472492750
H  -1.510891174490  12.004832120898 -1.407522482615
H  -4.787850902086  12.513845194637 -2.645196062010
H  -4.636054671263  13.115115104731 -0.997684444078
H  -6.837025409632  12.049573699479 -1.266909492811
H  -5.877009279786  11.095793393942 -0.157880480995
H  -5.884000784006  10.395586589529 -3.115002748430
H  -7.204335118736  9.864752378852 -2.094084717993
H  -5.289935969843  8.173698364337 -2.312420989458
H  -4.315236322331  9.291419878436 -1.342510613823
H  -4.115749989834  7.757134580458  0.366580717673
H  -4.984374222084  6.607963300095 -0.650647532277
H  -6.727008171811  6.335316510162  1.110545254614
H  -5.942898263053  7.538287144352  2.092851730697
H  -5.376556120410  5.284277764500  2.924504428513
H  -4.773486101734  4.804130488546  1.359147541379
H  -2.863571115375  6.297664918362  1.510384631166
H  -2.958316051998  5.525833616334  3.080366883840
H  -3.449850012379  6.820147589546  4.909951729513
H  -5.077378356249  7.081812997158  4.283211453511
H  -4.369488107958  8.847884314627  5.963320110928
H  -3.064055900191  9.302293995954  4.885560008493
H  -5.102233815214  10.790308476092  4.725063036552
H  -6.011659881040  9.433708829373  4.094149232986
H  -5.135838259215  10.919957183108  2.262048735333
H  -4.438013854290  9.302494391951  2.140199187245
H  -3.106974431254  10.612499401651  0.758958135346
H  -3.223476168789  12.237345828100  1.435911459567
H  -0.873557502088  11.828060659085  2.437087169061
H  -0.918369488404  12.068565307808  0.707720170820
H  -0.796217959978  9.612361435558  0.323294238324
H   0.550131165679  10.161209235675  1.279293361538
H  -0.722585064046  9.403512442445  3.378697478085
H  -1.959081278220  8.750337426707  2.327828255971
H   1.297929686565  8.597586615782  3.418221526399
H   1.690054916568  8.401239324296  1.711482597816
H   1.264164985755  6.062850962734  3.631109124100
H   1.852312007245  5.948930642486  1.994168691935
H   3.318342648101  7.392230596518  4.265418847240
H   3.713265701740  5.788101844028  3.714641511515
H   4.370290738627  6.661148830310  1.489876748961
H   3.839166925849  8.278802607833  1.937461041979
H   5.878643574108  9.040574372295  1.434271476255
H   7.195290227311  8.718199392961  2.551621781390
H   6.253072989531  6.826519484806  0.330596340112
H   7.744958674351  7.732412969870  0.335937795659
H   8.400988556285  6.502167416218  2.475404609624
H   6.949932975960  5.543843760715  2.313670325723
H   9.190811870176  5.671669292515  0.227197275532
H   8.932716179367  4.346863976479  1.362981022994
H   8.781535076714  2.894119711801 -0.355755182598
H   8.992611435135  4.179760559818 -1.541970906489
H   6.542873997737  2.347635533594 -1.369210092044
H   6.773598553486  3.606426108815 -2.549387279253
H   8.614406002517  1.185737163073 -2.243412162261
H   8.797325963906  2.442513882101 -3.443616783524
H   6.511197849057  1.852825003191 -4.368095227870
H   7.629929530279  0.503314055411 -4.473073544839
H   6.652020528191 -0.290573122471 -2.484431674342
