50
pair_id=pair_3f18c776b3702a389f8b start=4 nco_site=2 oh_site=2 attack_angle_deg=105.000000
C   0.159883306100  2.323753869400 -0.000995589400
C  -0.915882950700  1.477548341000 -0.000889906500
C  -0.733639648400  0.081070027900 -0.000518832500
C   0.583222895200 -0.449703940800 -0.000364756500
C   0.783355439400 -1.844419106000 -0.000205264700
C  -0.284573324100 -2.698870241200 -0.000232302300
C  -1.590540479800 -2.199499701100 -0.000313781500
C  -1.818214859700 -0.843116478200 -0.000342842400
N  -3.121474537100 -0.417891108100 -0.000126661600
C  -3.872846675800  0.506806114300  0.000830545000
O  -4.755064004400  1.257563566600  0.001595702000
C   1.674770097700  0.460296976500 -0.000398062000
C   1.463863819100  1.820274224000 -0.000699877800
N   2.939587000300 -0.071992494900 -0.000175286400
C   4.110474945300  0.148126150600  0.000736432600
O   5.267788579400  0.154240520700  0.001452554500
H   0.010107250600  3.392630684300 -0.001358245900
H  -1.917456576800  1.881777715100 -0.001153599100
H   1.795046022600 -2.219835175600 -0.000080892500
H  -0.129086437300 -3.766877366400 -0.000148362900
H  -2.432680020500 -2.873840173600 -0.000261212800
H   2.307590927200  2.494321811000 -0.000741655800
C   1.803496084601  4.247695258164  5.851323818864
C   1.790184984604  3.909080390126  4.519226728278
C   2.619969855971  4.569411890040  3.610763075915
C   3.458353867576  5.571534930668  4.072758513714
C   3.472156704691  5.913287032401  5.418382101495
C   2.647678698601  5.257108542678  6.318589149795
O   2.583165010074  5.515005715408  7.658922665310
C   3.406102556612  6.530332216000  8.197764325234
C   3.102047779122  6.591143905540  9.696112554744
O   1.783664513777  6.997029730970  9.943439767788
O   2.528492231337  4.156867253941  2.311327810946
C   3.345349301296  4.779566436289  1.340013901994
C   3.028009437893  4.104209240005  0.004182021631
O   3.397893240135  2.752396138268  0.003004646867
H   1.165305631740  3.739984089361  6.556785840106
H   1.139507911241  3.130917779240  4.153558317884
H   4.113398535119  6.104176937867  3.401776177709
H   4.138093325459  6.697754897926  5.741343660696
H   3.172357383517  7.498026527448  7.734503119447
H   4.467225119588  6.297379553821  8.041285749252
H   3.292942521773  5.601602106440  10.134843960699
H   3.750127964757  7.326868367465  10.176395163056
H   1.202657527850  6.418132633478  9.434396100283
H   3.127778585003  5.853592460835  1.276715882315
H   4.406390079146  4.635395719139  1.583316152131
H   3.594855363245  4.583224337926 -0.796500229512
H   1.953461400936  4.213526745189 -0.199785471003
H   2.987628861509  2.339696402297  0.773332918886
