142
pair_id=pair_40af32527bfdc13057fd start=2 nco_site=1 oh_site=2 attack_angle_deg=105.000000
C   0.159883306100  2.323753869400 -0.000995589400
C  -0.915882950700  1.477548341000 -0.000889906500
C  -0.733639648400  0.081070027900 -0.000518832500
C   0.583222895200 -0.449703940800 -0.000364756500
C   0.783355439400 -1.844419106000 -0.000205264700
C  -0.284573324100 -2.698870241200 -0.000232302300
C  -1.590540479800 -2.199499701100 -0.000313781500
C  -1.818214859700 -0.843116478200 -0.000342842400
N  -3.121474537100 -0.417891108100 -0.000126661600
C  -3.872846675800  0.506806114300  0.000830545000
O  -4.755064004400  1.257563566600  0.001595702000
C   1.674770097700  0.460296976500 -0.000398062000
C   1.463863819100  1.820274224000 -0.000699877800
N   2.939587000300 -0.071992494900 -0.000175286400
C   4.110474945300  0.148126150600  0.000736432600
O   5.267788579400  0.154240520700  0.001452554500
H   0.010107250600  3.392630684300 -0.001358245900
H  -1.917456576800  1.881777715100 -0.001153599100
H   1.795046022600 -2.219835175600 -0.000080892500
H  -0.129086437300 -3.766877366400 -0.000148362900
H  -2.432680020500 -2.873840173600 -0.000261212800
H   2.307590927200  2.494321811000 -0.000741655800
O  -21.100992480575  9.364345617915  33.519389611020
C  -20.050216859821  8.795071887847  32.750744473362
C  -19.975278733892  9.468969172233  31.387124047756
C  -21.289252732973  9.453065661091  30.596915721678
C  -21.887500757770  8.065127826975  30.393121345637
O  -20.911263094467  7.208725781403  29.803112372739
C  -21.429923685080  5.900864973233  29.566824188172
C  -20.330743181538  5.056180060481  28.933734415214
C  -20.797826678303  3.621211911267  28.686917221395
C  -19.706561229382  2.762289149990  28.056041992804
O  -19.410150038292  3.264574486382  26.755362025018
C  -18.386878102790  2.505894269268  26.114180213989
C  -18.099760702262  3.104243170179  24.740947009048
C  -19.325498278188  3.056837935897  23.821850533390
C  -19.031911518009  3.647841515192  22.443700233669
O  -17.954978277639  2.982852500129  21.784523157925
C  -18.339832691930  1.754648611640  21.168492171015
C  -17.108589226414  1.164602105764  20.488442123703
C  -17.358575577216 -0.200408872506  19.853563254190
C  -18.318753229777 -0.156127955775  18.669028848911
O  -18.413513997177 -1.475996930817  18.133781055023
C  -19.344596180609 -1.588862936306  17.059432743766
C  -18.841697273651 -0.968081412993  15.756311223502
C  -17.466217891914 -1.505525902822  15.347540260447
C  -17.010826525069 -0.956872000561  13.998272323607
O  -16.901757384018  0.462918900120  14.079978716898
C  -16.454206112631  1.063672339684  12.865482012047
C  -14.929892314737  1.055584823623  12.787519830856
C  -14.431294987515  1.773672217120  11.538360836002
C  -12.909396833852  1.785804413204  11.465719260202
O  -12.529079177434  2.453561168806  10.264245911296
C  -11.113958868403  2.519059070140  10.117569764625
C  -10.774873673368  3.219591941588  8.804759093638
C  -11.402842543289  2.582668331445  7.561551959285
C  -10.983247024600  1.130681716119  7.342950275940
O  -11.524979359113  0.631879887010  6.119402473770
C  -10.715111322392  0.888193907523  4.973535733483
C  -9.637197446120 -0.180674087494  4.796378088606
C  -10.235239659797 -1.585264118000  4.658497126034
C  -9.158065605656 -2.655279171289  4.487105957858
O  -8.302014793014 -2.397348365495  3.375636536066
C  -8.877277810172 -2.755034905104  2.121905246826
C  -7.858070470271 -2.495939161933  1.014464831655
C  -6.609720528914 -3.374494489213  1.161795108972
C  -5.639944448238 -3.215118847733 -0.004622561951
O  -5.030862428153 -1.932248363804 -0.002742988874
H  -21.065951683945  8.947519624203  34.397318596574
H  -19.108212135839  8.941607443182  33.289229309266
H  -20.225417096147  7.719130009100  32.656592356190
H  -19.178230277949  9.000280206507  30.798298877311
H  -19.689416422390  10.518972162291  31.527516858048
H  -21.086720635838  9.897121263748  29.614164111911
H  -22.030080939151  10.095061061221  31.087484643429
H  -22.221494396120  7.643584259770  31.347622156070
H  -22.756443995836  8.140870051032  29.729075857053
H  -21.747939699872  5.458572063877  30.517953434466
H  -22.293605557213  5.964069236807  28.894959543338
H  -19.448438121218  5.059313523081  29.585998285170
H  -20.011915879220  5.526985892064  27.995667069227
H  -21.671717214878  3.640404254422  28.024409750190
H  -21.107989595695  3.167226321701  29.635144931417
H  -18.803352631647  2.776058800360  28.676894983700
H  -20.061195214206  1.728801183400  27.971162715991
H  -17.475395695597  2.537993535694  26.721904424200
H  -18.707825813435  1.462586888904  26.014323231009
H  -17.789672486149  4.149457485453  24.860812035080
H  -17.264922593157  2.559458378983  24.286013368178
H  -20.154577281940  3.615602294300  24.271202368616
H  -19.655462103990  2.016961583634  23.722761796232
H  -19.929591212333  3.633501481730  21.814625098818
H  -18.737213285142  4.696978606876  22.556743748729
H  -19.127878061493  1.954220302238  20.435201100373
H  -18.717960360476  1.057435586818  21.922707923837
H  -16.730251852998  1.869055475772  19.737168334757
H  -16.306656371252  1.070217710929  21.231828116423
H  -17.734930519408 -0.905002627152  20.605749256157
H  -16.401088771439 -0.616933300623  19.515367439151
H  -17.935950958317  0.531583298772  17.908488715467
H  -19.312527249699  0.174199545400  18.987961510904
H  -20.307937116024 -1.153690716681  17.349882568408
H  -19.514507420167 -2.659739962885  16.901797779338
H  -19.571671298111 -1.172862733347  14.964168420244
H  -18.789027589848  0.120855701987  15.864174305585
H  -17.495480767680 -2.600051036187  15.298003687320
H  -16.729548055812 -1.226418058345  16.110277665779
H  -16.040127489493 -1.394009403882  13.743176142399
H  -17.733271168153 -1.225785583011  13.219102168831
H  -16.908487851507  0.571009375200  11.997737084178
H  -16.810930112852  2.099393385412  12.876202980934
H  -14.557962162110  0.024800320248  12.795041230802
H  -14.520020479520  1.529423329680  13.688148613897
H  -14.802558704299  2.805986653705  11.518520744217
H  -14.834458286256  1.292486763395  10.638396808037
H  -12.521406776249  0.760822830407  11.452336855089
H  -12.491549048977  2.316323738939  12.328965432502
H  -10.688049739217  3.088242145845  10.951958251814
H  -10.688339725212  1.509802298461  10.138071943486
H  -9.685592237400  3.259586223927  8.688412183586
H  -11.130783644466  4.255999341120  8.859509116966
H  -11.128646349673  3.184689373511  6.687299791235
H  -12.497308485085  2.637185949354  7.614585297271
H  -9.893788112274  1.020141004637  7.366253366201
H  -11.394010778512  0.503380462805  8.140348552435
H  -10.264151204523  1.885142954167  5.024614684989
H  -11.379559561126  0.879485866404  4.102592945378
H  -8.956287636373 -0.170488941562  5.654785539813
H  -9.044662510630  0.065197480318  3.907764212972
H  -10.916519758779 -1.598721034132  3.800601746741
H  -10.830960653889 -1.830524959700  5.545276037309
H  -8.522973740545 -2.671365121247  5.379740015178
H  -9.608231293420 -3.650788565023  4.397492821823
H  -9.767926849083 -2.146879642556  1.934641047108
H  -9.166274288809 -3.812180532529  2.130609728559
H  -7.564263899037 -1.440382704915  1.043573310632
H  -8.330412312194 -2.685036613518  0.043680155422
H  -6.914126834986 -4.425820823587  1.224501822925
H  -6.095230599526 -3.119742314173  2.095827753340
H  -6.139568648081 -3.367811748115 -0.966747766375
H  -4.839376966459 -3.956818215439  0.078596512234
H  -5.729613766037 -1.266935143358 -0.114462536932
