45
pair_id=pair_fd001194f5aff44100ff start=2 nco_site=1 oh_site=2 attack_angle_deg=105.000000
O   6.071138798300  2.480874245000 -0.539966886600
C   5.281563264000  1.703290642200 -0.203729312400
N   4.583194840700  0.895553337000  0.323028101100
C   3.469566272400  0.097992287700  0.217823463600
C   3.141003666300 -0.720825069600  1.291776942100
C   2.027239290200 -1.535897111400  1.217504870200
C   1.230376574900 -1.552900220000  0.080976745700
C   0.000129982500 -2.417918638600 -0.002577497200
C  -1.230253681400 -1.553071685200 -0.084299228600
C  -2.021435998300 -1.526209840700 -1.224619472200
C  -3.134787785500 -0.710465627800 -1.297435226200
C  -3.468763238200  0.098981255200 -0.218056518800
N  -4.581846364100  0.897438299100 -0.321975352000
C  -5.282652338400  1.701065266500  0.207899688400
O  -6.073694902800  2.476057311700  0.546553031600
C  -2.680498724400  0.084975519400  0.931153113200
C  -1.572915706700 -0.735626567500  0.987803746500
C   1.567638803400 -0.726117648500 -0.985674162700
C   2.675451036000  0.094047662700 -0.927432521900
H   3.761402694000 -0.710428411900  2.174324307200
H   1.779230559000 -2.170944736200  2.055913696000
H   0.058433977900 -3.056457871800 -0.886664495400
H  -0.057740878700 -3.058561817600  0.879976911700
H  -1.769229849800 -2.154027086400 -2.067217719300
H  -3.750781892300 -0.692421148900 -2.182945547900
H  -2.943609239700  0.716629811900  1.766859046600
H  -0.960209384700 -0.742612630800  1.877475508100
H   0.950329509800 -0.725172817000 -1.872181069100
H   2.934211927200  0.733133578500 -1.758835180200
O   6.880244479246  3.604845440673  2.716075851856
C   6.119601321052  3.831844054409  3.885194823315
C   6.341658936502  2.786916590364  4.981321497832
C   5.723915209388  1.414224178740  4.698208467990
C   6.412056971973  0.612604590427  3.583857875216
O   6.025958815690  0.985107215345  2.290281078118
H   7.815726152244  3.593195208868  2.949441689290
H   6.350399551989  4.829234662963  4.284713781328
H   5.077274406646  3.824468074369  3.558678925109
H   5.901019803312  3.179028255265  5.900251725272
H   7.416799874416  2.672738360990  5.153574040224
H   5.775920756994  0.825475841584  5.616249445791
H   4.671562117525  1.534003173653  4.434003238213
H   6.132078689120 -0.440453314816  3.678011370923
H   7.505804486153  0.683830506352  3.702543048758
H   6.241049132262  1.926204375773  2.171609697181
