383
pair_id=pair_1eed3bf4b6fc24a22592 start=2 nco_site=1 oh_site=2 attack_angle_deg=105.000000
O   6.071138798300  2.480874245000 -0.539966886600
C   5.281563264000  1.703290642200 -0.203729312400
N   4.583194840700  0.895553337000  0.323028101100
C   3.469566272400  0.097992287700  0.217823463600
C   3.141003666300 -0.720825069600  1.291776942100
C   2.027239290200 -1.535897111400  1.217504870200
C   1.230376574900 -1.552900220000  0.080976745700
C   0.000129982500 -2.417918638600 -0.002577497200
C  -1.230253681400 -1.553071685200 -0.084299228600
C  -2.021435998300 -1.526209840700 -1.224619472200
C  -3.134787785500 -0.710465627800 -1.297435226200
C  -3.468763238200  0.098981255200 -0.218056518800
N  -4.581846364100  0.897438299100 -0.321975352000
C  -5.282652338400  1.701065266500  0.207899688400
O  -6.073694902800  2.476057311700  0.546553031600
C  -2.680498724400  0.084975519400  0.931153113200
C  -1.572915706700 -0.735626567500  0.987803746500
C   1.567638803400 -0.726117648500 -0.985674162700
C   2.675451036000  0.094047662700 -0.927432521900
H   3.761402694000 -0.710428411900  2.174324307200
H   1.779230559000 -2.170944736200  2.055913696000
H   0.058433977900 -3.056457871800 -0.886664495400
H  -0.057740878700 -3.058561817600  0.879976911700
H  -1.769229849800 -2.154027086400 -2.067217719300
H  -3.750781892300 -0.692421148900 -2.182945547900
H  -2.943609239700  0.716629811900  1.766859046600
H  -0.960209384700 -0.742612630800  1.877475508100
H   0.950329509800 -0.725172817000 -1.872181069100
H   2.934211927200  0.733133578500 -1.758835180200
O   1.621636706881  2.542400847074 -12.596522151369
C   1.434208357737  2.474539144038 -13.989207494052
C   1.012168733758  3.803552022576 -14.614186052672
C   2.115458251253  4.874236807649 -14.659058035770
C   2.284182866079  5.688629766783 -13.374887021930
O   2.914340803679  4.997137143314 -12.301894533562
C   4.329361096292  4.929697581673 -12.432896789529
C   4.944199830572  3.948603746482 -11.445995659897
C   4.633881209508  4.320115471366 -10.002699032584
C   5.250254417896  3.363895657457 -8.994122107711
O   4.908906154803  3.688109387943 -7.652792175420
C   5.579390500433  4.854548521522 -7.170263566282
C   4.637329016960  5.835882256440 -6.488133655340
C   5.371826821777  7.063653350644 -5.954133864626
C   4.532297643121  7.912603475776 -5.009758180142
O   3.459911486985  8.599852126550 -5.644465329202
C   2.737151136907  9.388439030319 -4.700092866001
C   1.609738144817  10.208074067900 -5.313039949956
C   0.751635690651  10.878206941817 -4.245876453369
C  -0.487704481460  11.554008528145 -4.810090372983
O  -0.176718045312  12.597184038387 -5.726876864437
C  -1.283737822536  13.466349322065 -5.948073685134
C  -1.066238583961  14.398955550170 -7.131063424234
C  -1.045870341850  13.650242136832 -8.459076676036
C   0.115347421520  12.677724601653 -8.574674664122
O   0.074390631053  11.934135751903 -9.786745089082
C   1.098654115181  10.947847116849 -9.842926519367
C   0.927306448809  10.014276266024 -11.030308042876
C   1.973783768264  8.906216831522 -11.080676856639
C   1.981836214542  8.086613850868 -9.798627162810
O   0.674559741975  7.726487725605 -9.381339850593
C   0.103433442609  6.652563827177 -10.113386964464
C   0.843905049255  5.345249718214 -9.875946215542
C   0.042225413067  4.093465302318 -10.204381282316
C   0.747219282841  2.868990461128 -9.640901997557
O   1.029473194288  3.060044127602 -8.259443060317
C   1.798706211942  2.009190951275 -7.687661947198
C   2.128652163289  2.296102400515 -6.231198738348
C   2.942987841274  1.196346974796 -5.557446528182
C   4.358547566504  1.082040464547 -6.100255449008
O   5.134152547155  0.157291282031 -5.346949232035
C   6.459091649431  0.011179117306 -5.843845795689
C   7.340314245160 -0.710346236691 -4.837287556594
C   6.805059342562 -2.091659521417 -4.489644084727
C   7.529937173915 -2.677695096550 -3.287299952398
O   7.362804704380 -1.835875915528 -2.152362954702
C   8.229530881805 -2.142778316622 -1.065957686466
C   8.177069007994 -1.033785059924 -0.026196891981
C   8.504799227626  0.309826385347 -0.665152796391
C   8.257099358723  1.499437797677  0.246714881216
O   8.435931679374  2.728146667831 -0.444639948530
C   8.191191481483  3.874039992546  0.357125669130
C   6.784156562061  3.925811632704  0.949416292839
C   6.354247586632  5.332215083547  1.357306578240
C   6.023025961526  6.178500046015  0.138064984318
O   4.874199622581  5.676831854074 -0.544984574769
C   4.883416807927  5.945281103452 -1.943692504841
C   5.369932850556  4.757525893624 -2.760447017481
C   4.514302797587  3.510147394150 -2.559826386145
C   3.027530593986  3.784590089986 -2.745204790241
O   2.746909657946  4.417214925272 -3.990696899215
C   1.505512279102  5.120082891231 -3.979119852254
C   1.229156768636  5.823716893325 -5.300413525280
C   0.055718945952  6.792669169886 -5.229839987255
C  -0.242196092364  7.451826325959 -6.573533236472
O  -0.907357273770  8.704023750628 -6.426985162237
C  -1.564024525595  9.118946134613 -7.617806432119
C  -2.969236956336  8.549859732741 -7.693771826176
C  -3.760713592892  8.945809699489 -6.456740906010
C  -5.168236027860  8.377161245404 -6.419121194564
O  -5.855866157926  8.762158083209 -5.232523435590
C  -7.228788765210  8.399565873641 -5.230724759131
C  -8.033055911537  9.113501201776 -6.309542703718
C  -7.753984018037  10.612017220790 -6.307434095107
C  -8.316997068074  11.333870987614 -7.523142880647
O  -8.126266491165  12.742586391806 -7.497283750386
C  -6.761879452264  13.122111000232 -7.363454654824
C  -6.550584813266  14.615679118772 -7.552885554893
C  -5.113936881902  15.058071316404 -7.283996399925
C  -4.682898210341  14.773342428485 -5.850856800774
O  -4.553203763814  13.377061153910 -5.601875321733
C  -4.485289051122  13.068786282020 -4.212824732543
C  -4.335265876470  11.575739784365 -3.967520806124
C  -4.229909986947  11.223858608253 -2.489433307766
C  -4.067788247197  9.730791793969 -2.251860873254
O  -3.914618657986  9.408913494799 -0.869765022587
C  -4.006989878308  8.009551931912 -0.641887398856
C  -3.596722455145  7.581450338936  0.760929498824
C  -4.410133774359  8.251188029650  1.862487737102
C  -3.981520671398  9.689709693920  2.096535311221
O  -2.642860735657  9.774946684543  2.581741694426
C  -2.150162372394  11.116025398992  2.637823531838
C  -1.143477155253  11.411894212088  1.532836904247
C  -1.672000963546  11.012784698959  0.167391352475
C  -0.705296555341  11.310632405405 -0.968411647750
O   0.623582282331  10.878261502448 -0.728049175818
C   0.757036223832  9.474194606213 -0.533204510474
C   2.214263726518  9.099317911699 -0.301141283440
C   2.422336430321  7.649817549565  0.128195298730
C   1.801232408753  7.325110319106  1.483325967263
O   2.285713139611  6.121559432407  2.066210491627
C   2.231125539131  5.015826590549  1.175875775570
C   2.415524420841  3.677167659418  1.875790550756
C   2.497973272950  2.514996314534  0.888371820925
C   1.201416466015  2.289036332338  0.123406665534
O   1.361506031228  1.396907480206 -0.973858108989
C   0.106888509038  0.996892642308 -1.523656415393
C   0.213874266527  0.612797021949 -2.989977979879
C  -1.081455795004  0.042658589477 -3.552099379929
C  -0.986317482427 -0.180266608112 -5.052573602719
O  -0.708500142533  1.018858235797 -5.761671202499
C  -1.862149628700  1.832536622749 -5.952701132418
C  -1.516019348549  3.167805254581 -6.593076759003
C  -2.731425732805  4.007899693284 -6.966244898318
C  -3.494461633105  4.484908724449 -5.740957496357
O  -2.653097657962  5.210632367653 -4.854844525862
C  -3.366841647135  5.912836086610 -3.849449231539
C  -4.102168256266  4.999608982471 -2.882827229182
C  -3.187243298533  3.962681943388 -2.238351759524
C  -2.024069692345  4.568434653171 -1.456897428513
O  -1.450948016994  3.642986038873 -0.539974783351
C  -2.139496434661  3.616486704747  0.707657334155
C  -1.599850708708  4.651035703712  1.684470818741
C  -2.441101058539  4.799757404310  2.945649333456
C  -1.782901210880  5.765663460620  3.917055618445
O  -0.502288674089  5.276894085208  4.302468894274
C   0.378621794959  6.286796268074  4.777695244138
C   1.747347766418  5.696125184906  5.075093713815
C   1.663732246854  4.606267188945  6.133980674050
C   2.910042459788  3.734667784991  6.166208722024
O   3.023249841571  2.957256826236  4.980563003453
C   4.136219552265  2.069352118890  4.994965253024
C   5.435829882450  2.746488333401  4.590021387617
C   6.628955557397  1.796172058519  4.528608961834
C   6.414847834043  0.609912001949  3.593208332759
O   6.025958815690  0.985107215345  2.290281078118
H   2.108983154209  3.378418728798 -12.401926542136
H   0.680225748452  1.696186510615 -14.163481494800
H   2.363373607888  2.109906713880 -14.445168137057
H   0.653311307506  3.610893934858 -15.634684698335
H   0.144073136812  4.195647597066 -14.073207510857
H   3.065726080694  4.405527372718 -14.933002659865
H   1.898278867600  5.571181550518 -15.480806379574
H   1.303386601649  6.014448571985 -13.012719753182
H   2.862368892300  6.602950360058 -13.555109531365
H   4.575694911408  4.653995117255 -13.463772251038
H   4.721868094909  5.939223126205 -12.267630518255
H   6.030277167266  3.890581898144 -11.588953508657
H   4.563518231116  2.941547607395 -11.651578545505
H   3.551086752186  4.340907017969 -9.848919986179
H   4.966547070174  5.344720839668 -9.805873163322
H   4.904626938866  2.340874057558 -9.178281909894
H   6.342302035729  3.339639200480 -9.078828606659
H   6.353007225833  4.513940401312 -6.472143042603
H   6.109747164879  5.344521182184 -7.993751401928
H   4.122665373941  5.316958727100 -5.672377088293
H   3.845590652401  6.137079992674 -7.183082554768
H   5.716750593306  7.682406709088 -6.790205272402
H   6.283651669029  6.735112482552 -5.439047764551
H   5.154413927551  8.667091807514 -4.513062549223
H   4.100441930798  7.286081043628 -4.223086873086
H   3.446414275584  10.047588344378 -4.187078653067
H   2.338936441192  8.706304276808 -3.940537590809
H   0.986662297563  9.558651016370 -5.933348484514
H   2.015277282075  10.955485831482 -6.003855779035
H   1.352442391240  11.615231209677 -3.700927505123
H   0.459012602744  10.128625272842 -3.501282477609
H  -1.098584430877  11.982016792093 -4.006767322648
H  -1.112659361631  10.826787402713 -5.339838244137
H  -1.442121743795  14.030255551273 -5.021277310718
H  -2.175572807212  12.850293345464 -6.110835891051
H  -1.843293690702  15.173908615314 -7.148941301543
H  -0.117224336236  14.929290794797 -6.994621256509
H  -1.006865230732  14.351499836614 -9.301545049689
H  -1.983634003153  13.097241497382 -8.586505741319
H   1.074435314391  13.205118442036 -8.526654151238
H   0.099462798582  11.966294949332 -7.742131635187
H   1.066992740182  10.382709258661 -8.905088323485
H   2.066821665442  11.459122934065 -9.880450130179
H   0.932412987846  10.601412889626 -11.956464981727
H  -0.072842619990  9.569620278789 -10.973060285895
H   1.776845227689  8.250667139968 -11.936801855826
H   2.967970879872  9.333779680680 -11.260623823062
H   2.601500074827  7.187980530429 -9.885714365934
H   2.414647761003  8.666254303303 -8.974642284479
H   0.059947287898  6.915802621367 -11.174955308503
H  -0.935256058253  6.565353530000 -9.775109319544
H   1.783901847682  5.338429251662 -10.435190921379
H   1.135181887096  5.303879820677 -8.819219735921
H  -0.954216960825  4.173545945942 -9.755442727711
H  -0.118895900888  4.003190662248 -11.285274615792
H   1.698885858818  2.699225794924 -10.155633780373
H   0.145867685112  1.959628512060 -9.753898691041
H   2.711363293383  1.894601832997 -8.280554839223
H   1.225629711904  1.079900879268 -7.780424652223
H   2.670626354609  3.246508279697 -6.168393297448
H   1.189595337738  2.458857240534 -5.690208647575
H   2.433227678624  0.232002457445 -5.660454820103
H   3.004319362708  1.375289843511 -4.477710548475
H   4.358690523241  0.758793118525 -7.146385037947
H   4.862063896678  2.054733304869 -6.060220742699
H   6.854431943229  1.007671921783 -6.074495626891
H   6.402487465340 -0.544990222023 -6.785952430047
H   8.374648664808 -0.781657741803 -5.195409532834
H   7.382592740208 -0.113187116107 -3.918980703987
H   6.869001237253 -2.757807602352 -5.358552138690
H   5.737955432281 -2.004391106721 -4.253271075484
H   7.155958262599 -3.674707021404 -3.027603614077
H   8.601178149138 -2.770376105994 -3.495909198192
H   9.246536034360 -2.248977093728 -1.458747625483
H   7.931352468881 -3.112435167927 -0.651156476087
H   8.852821573491 -1.238354289933  0.812936420637
H   7.168414651927 -0.990960970263  0.401272797690
H   9.541358605961  0.323168593196 -1.020083465724
H   7.894543116239  0.433261403597 -1.567492966256
H   8.924441470328  1.482853030401  1.115072771884
H   7.230026537774  1.468776215747  0.621821067828
H   8.369010310514  4.735709649554 -0.294380858338
H   8.956915179468  3.920754996287  1.139701366071
H   6.073543651241  3.541425441598  0.210263065708
H   6.724096178703  3.239068729136  1.800999188962
H   5.465198631051  5.289174426215  1.998347893437
H   7.141114538328  5.802005266667  1.959772361589
H   5.817164036407  7.219888595109  0.412129369830
H   6.865782320084  6.196364478734 -0.560118173695
H   5.483227168726  6.844512353494 -2.129144638657
H   3.857019963689  6.205004971101 -2.222565900096
H   5.376446636329  5.022276461557 -3.823469543025
H   6.413835110295  4.541040985984 -2.502706670132
H   4.691848197846  3.097192390882 -1.560629848344
H   4.829475820384  2.728066519481 -3.261802532938
H   2.434133043319  2.864176296665 -2.693215619872
H   2.660157093972  4.432640945281 -1.942596237151
H   1.540715804536  5.852302449672 -3.165059786451
H   0.707887748888  4.409105328800 -3.736523743524
H   2.124344771605  6.376625281510 -5.602174816116
H   1.067948097944  5.085035244400 -6.092881596858
H   0.267103627950  7.572064178006 -4.489464560097
H  -0.838864525223  6.283787331756 -4.857976549552
H  -0.842590337918  6.791171492178 -7.207636582421
H   0.686433577477  7.649353151761 -7.121977654143
H  -1.597488998652  10.213979100504 -7.600642151044
H  -0.947817419755  8.836687156650 -8.478930789513
H  -2.927587538412  7.457752659557 -7.766612398246
H  -3.481708683930  8.891791381407 -8.601308024076
H  -3.216871437900  8.631418611094 -5.558700629321
H  -3.813627677638  10.038101264640 -6.391912211079
H  -5.729937830045  8.725064124808 -7.290815208514
H  -5.152894102834  7.283725172183 -6.465769694416
H  -7.610059610865  8.661813664872 -4.237165979632
H  -7.298595055974  7.309028708843 -5.317562134426
H  -9.106843107118  8.926153904780 -6.184818333066
H  -7.786855176533  8.699736730716 -7.293826211907
H  -8.144718720576  11.068781225649 -5.391242952656
H  -6.670491149515  10.763395249323 -6.263085484238
H  -7.872539990526  10.950340751796 -8.448314204825
H  -9.396121459936  11.162493722603 -7.603588156076
H  -6.163607163437  12.549830095192 -8.081053153309
H  -6.436243701038  12.828429241803 -6.360964905592
H  -7.232864181299  15.152405906655 -6.883858023431
H  -6.861725289391  14.894837838077 -8.566810514734
H  -5.000515778101  16.127015878153 -7.506998707093
H  -4.435828363984  14.534623270515 -7.967131188926
H  -5.416345352600  15.183865112015 -5.148240144506
H  -3.719984154614  15.241284876511 -5.616614992270
H  -3.642970151987  13.619470173402 -3.780284282986
H  -5.395305112521  13.445593432458 -3.733216221755
H  -3.449028194885  11.212322332565 -4.497290122672
H  -5.178407374180  11.042470815837 -4.419889627729
H  -3.385084386598  11.760571724737 -2.046662146860
H  -5.113445907829  11.583720214839 -1.950341362700
H  -4.936507685123  9.187013226429 -2.640652914416
H  -3.189572188553  9.349013734279 -2.784723219045
H  -3.381590263346  7.515138110750 -1.392666009483
H  -5.044317930542  7.718027426323 -0.841397212495
H  -2.536381061397  7.808903120755  0.917424704322
H  -3.687391694933  6.490845236149  0.840358421617
H  -4.293052083957  7.701696007777  2.804938611012
H  -5.477440330486  8.200087524352  1.614608903142
H  -4.051417420720  10.259212366455  1.164737414731
H  -4.630159987994  10.184557458376  2.829054408608
H  -1.704233996434  11.257587790840  3.629768143163
H  -3.002396669827  11.802864191170  2.580824883403
H  -0.866708116451  12.473310161611  1.533596609288
H  -0.212462580120  10.869485816734  1.731565633983
H  -1.911425350188  9.943985882142  0.176369573816
H  -2.629265373596  11.515918644531 -0.011093521509
H  -1.044931359505  10.861628973776 -1.907990404362
H  -0.642935791171  12.391402624804 -1.140658427347
H   0.146883861129  9.184705874528  0.326896187259
H   0.346661538893  8.952518176441 -1.404525416482
H   2.625215581476  9.767766554780  0.464113635635
H   2.787299251593  9.321126228268 -1.209752907998
H   2.022352671164  6.976299382494 -0.637907424907
H   3.494285725814  7.429073621494  0.181580756625
H   0.709830776991  7.253361851099  1.417332258421
H   2.017335453868  8.124007202841  2.201566553543
H   1.275210834301  5.054920365745  0.644070302583
H   3.021873565786  5.157504162852  0.431962333144
H   1.597542771830  3.514761216241  2.586262377208
H   3.321821249938  3.725230937111  2.489544561268
H   3.302351745292  2.704213731365  0.170443343445
H   2.779899889294  1.585715999294  1.397654029465
H   0.425245680183  1.892124306665  0.787237415987
H   0.817305501504  3.227195813582 -0.290479461445
H  -0.262389129065  0.157710324448 -0.923733689239
H  -0.608772544751  1.817753579663 -1.399530269178
H   1.029982921041 -0.107142840284 -3.118351687091
H   0.511512653484  1.491791415613 -3.572101962990
H  -1.907023608025  0.726352360321 -3.327958930927
H  -1.331356291280 -0.893292647862 -3.037087578613
H  -1.900722584189 -0.624685035525 -5.462723655430
H  -0.169968760918 -0.875058293847 -5.280645164149
H  -2.562568772414  1.275170433422 -6.584294496431
H  -2.350743103069  1.982611802422 -4.986000232731
H  -0.899711168141  2.974581603127 -7.477228417280
H  -0.876466608790  3.735127605419 -5.908942642722
H  -2.410463748070  4.883980866609 -7.542673236446
H  -3.390620338695  3.437209232873 -7.631762116217
H  -3.910231473299  3.634762315502 -5.191260042366
H  -4.336521191718  5.126016597080 -6.024748258678
H  -4.047969874349  6.617288341263 -4.340590577751
H  -2.628898268803  6.521875205285 -3.316320202593
H  -4.588194863335  5.595850662583 -2.101204361071
H  -4.923315181263  4.497456370121 -3.408289313165
H  -3.769637285972  3.317928227125 -1.569542076785
H  -2.786050157797  3.288339586039 -3.002785944292
H  -2.344073108756  5.452910942224 -0.898102251642
H  -1.228588685140  4.903251422106 -2.132464722650
H  -2.041887022495  2.606015323967  1.120469065694
H  -3.208375229604  3.772000419439  0.526472234503
H  -0.574045023355  4.387596864909  1.963819279589
H  -1.507214226507  5.619787821151  1.183236745102
H  -2.548182562924  3.822008056615  3.428722071745
H  -3.458215200462  5.122973168573  2.694872526547
H  -1.656731594307  6.749145796425  3.450389777349
H  -2.378202579774  5.907879687550  4.826410521826
H   0.441123928465  7.073395263696  4.017237463117
H  -0.064986266394  6.727665343996  5.676881788939
H   2.462069836376  6.472371575059  5.374719277977
H   2.147696412222  5.264235372937  4.151169552709
H   0.800184936457  3.967721753912  5.912624396578
H   1.463220929725  5.050658044461  7.116791949977
H   2.886421917192  3.045385447809  7.018418588030
H   3.809266547061  4.350668440772  6.266952949166
H   3.890234776001  1.257522321933  4.302104500864
H   4.216817341009  1.611520561943  5.986848092553
H   5.291004925509  3.225284977044  3.616452687000
H   5.646217851383  3.572684324283  5.279150432275
H   6.862376140099  1.433610108082  5.537452358314
H   7.518381685464  2.349092222740  4.201810786856
H   7.336606702868  0.022818090101  3.493025780839
H   5.664282807734 -0.082601779517  3.995008177293
H   5.132326027783  1.397176613534  2.308927427869
