271
pair_id=pair_d434badaff61c4b9cbd1 start=2 nco_site=1 oh_site=2 attack_angle_deg=105.000000
C  -0.000459126700  0.000735647000  0.522920831700
C  -0.992010663100  0.785756250600  1.378015788600
C  -2.016019424300  1.545821546900  0.531210324300
N  -2.900118248500  0.690267334900 -0.172920072400
C  -3.027304416400 -0.361792352400 -0.706570253900
O  -3.350981806000 -1.330304924500 -1.258230835400
C   0.991685933700 -0.781037848400  1.380304733300
C   2.015050216700 -1.544161560500  0.535524113100
N   2.899661976200 -0.691079752300 -0.170947158200
C   3.028001394800  0.359617411700 -0.706957544600
O   3.352420678500  1.326287571100 -1.261459476700
H   0.543752107700  0.694726014500 -0.123116924700
H  -0.545127995300 -0.695790143500 -0.120004612200
H  -1.519839110600  0.103171708700  2.047840451100
H  -0.453194586000  1.512088430100  1.989342102200
H  -2.639266568200  2.176501823800  1.171880418400
H  -1.502500947100  2.189849824200 -0.192137373200
H   1.520081193200 -0.095964201300  2.047135765000
H   0.453279376600 -1.505025608900  1.994762298100
H   2.637854627800 -2.173717065300  1.177729304000
H   1.501047115700 -2.189637061700 -0.186196264700
O  -1.091565366130 -0.753387707839 -6.141524465890
C  -1.781248512334 -0.714184768426 -7.383972626106
C  -1.388838253805  0.557063307779 -8.124541876813
C  -2.047358369638  0.633748627916 -9.502546427178
C  -1.643255147595  1.895477412502 -10.259457345526
O  -2.208074740701  3.033161201341 -9.612034479323
C  -1.786476650732  4.253928381297 -10.215023231704
C  -2.543974820181  5.419121082428 -9.585215986667
C  -2.306928272880  5.526714437840 -8.079629830201
C  -3.096024703523  6.679775081466 -7.472164916739
O  -2.909625634618  6.649761480809 -6.057749849417
C  -3.398420972929  7.829980225644 -5.427648634761
C  -3.196084759698  7.697309402921 -3.921605369657
C  -4.090524430088  6.638369112885 -3.270983089468
C  -5.545139378875  7.083597062634 -3.155510157327
O  -6.259309514137  6.109637680302 -2.391762912535
C  -7.462398615200  6.651364331218 -1.841783358938
C  -8.163368747937  5.559419289845 -1.043795298983
C  -9.207355213485  6.091451871878 -0.059893647583
C  -10.297635713548  6.961675917993 -0.675757322705
O  -10.968606046842  6.231508114191 -1.696802327642
C  -12.144241742620  6.909464794956 -2.143149951279
C  -12.814095683569  6.072287096095 -3.224581928002
C  -12.036749184158  6.108758206102 -4.540094016187
C  -12.599266117074  5.099340337089 -5.529263151204
O  -11.980178379643  5.286707555041 -6.798407624578
C  -12.277021014880  4.196440704702 -7.672630640632
C  -11.660977824282  4.481572098590 -9.034356935629
C  -12.061967204972  3.420935678234 -10.058662611989
C  -11.545657305661  3.742858373351 -11.456377045989
O  -12.137358289426  4.959982258478 -11.906901248596
C  -11.803057716049  5.255467947702 -13.257617135689
C  -12.433186418763  6.579997699869 -13.683696626459
C  -11.790065402905  7.822316018631 -13.048741475304
C  -12.091167999051  8.019632100460 -11.565607263236
O  -13.501787104979  8.107080374732 -11.380647619919
C  -13.861094756575  8.141982371852 -10.000087862493
C  -15.375844971845  7.997753693535 -9.914902137471
C  -15.931480302509  8.001053255302 -8.493010782586
C  -15.346691046305  6.901491607073 -7.607563592553
O  -16.155839689377  6.730762476305 -6.439252261804
C  -17.184513255106  5.750951138174 -6.614093971203
C  -16.662438701860  4.358653440402 -6.264470695676
C  -16.507111823262  4.172577714319 -4.750135540831
C  -15.668243681158  2.948619112225 -4.389778833544
O  -16.115358707675  1.816389176846 -5.127139953172
C  -15.471965840588  0.594698037085 -4.764532831980
C  -13.968181966674  0.597683899137 -5.044657695958
C  -13.381829647684 -0.810774432648 -4.937529551605
C  -11.856488554631 -0.815001641630 -4.950998322828
O  -11.374347925079 -0.209296050390 -6.149094084844
C  -9.947862269209 -0.234553764552 -6.225734008124
C  -9.370333046023  1.177789978698 -6.218551915244
C  -9.750838757970  1.963186690907 -4.960773673984
C  -8.914101628978  3.225630284630 -4.787405380416
O  -9.031909736701  4.045859587020 -5.944624900636
C  -8.257476417428  5.236000011570 -5.823508203369
C  -8.347905039678  6.005060874931 -7.134191828811
C  -7.486908418553  7.268395071905 -7.104966890516
C  -7.512917966792  8.009286247447 -8.438152656672
O  -6.970060030842  7.158476624773 -9.442419576205
C  -6.975137971736  7.759237293071 -10.734732513175
C  -6.726208767303  6.667668520938 -11.772309986363
C  -7.911387954697  5.695441569200 -11.847348931198
C  -7.631180858002  4.497958096409 -12.754597946852
O  -6.574796627252  3.669386366788 -12.275993933217
C  -6.904095225273  2.915522364538 -11.104813004573
C  -5.982146935503  3.352723710675 -9.976220117767
C  -6.235613014884  2.599561443636 -8.675794442331
C  -5.311919834666  3.117913936073 -7.581225741593
O  -5.515615688274  2.367001488972 -6.386100608348
C  -4.748500859910  2.910285682048 -5.310752002841
C  -4.648044932801  1.877393741839 -4.195705493358
C  -3.847605235337  0.660009155024 -4.648900739819
C  -3.623851101989 -0.341742703038 -3.526061063828
O  -2.888950543468 -1.447420151895 -4.063819676761
C  -2.558279682702 -2.395700645680 -3.047617963752
C  -1.994536575971 -3.639447596997 -3.724557372746
C  -1.635915168008 -4.722761074137 -2.706641842214
C  -1.257181018610 -6.051637354771 -3.367212392899
O  -2.226676643281 -6.484307323398 -4.319171675837
C  -3.416782466128 -7.010116249125 -3.736617115577
C  -4.502513830328 -6.989135943700 -4.806157822716
C  -5.877233500959 -7.282274229309 -4.217840064771
C  -6.980452735069 -7.096924730190 -5.254840547015
O  -8.249006203589 -7.156078383994 -4.601969957357
C  -8.962488737416 -5.917824344745 -4.607446427157
C  -8.350871748527 -4.904060389454 -3.641500982705
C  -9.164242178300 -3.615859270216 -3.584120460077
C  -8.573322238659 -2.620888925127 -2.589762459053
O  -9.385720492734 -1.448104177886 -2.602724595482
C  -9.109462732501 -0.551584046002 -1.526330873033
C  -7.794638353455  0.203178071774 -1.714716191323
C  -7.608585189229  1.259253918503 -0.622643428547
C  -6.342559806539  2.084079641809 -0.811317358499
O  -5.199297615969  1.240623363216 -0.775195434192
H  -1.706164158474 -1.152226200809 -5.488755389299
H  -1.506896802336 -1.606946832298 -7.954109078550
H  -2.860217169007 -0.735881661723 -7.200978332478
H  -1.665315323332  1.427590346942 -7.516662702301
H  -0.296969923976  0.596319437734 -8.225005776007
H  -3.137220423679  0.614028292937 -9.380523891012
H  -1.759890252526 -0.244127289871 -10.092584808603
H  -2.029388224995  1.843349749178 -11.283729680691
H  -0.551547592922  1.986232932758 -10.298199957299
H  -0.707450022919  4.378308501811 -10.069359860532
H  -1.996967803014  4.226688687217 -11.290374408166
H  -2.243284948634  6.351599609584 -10.076626189917
H  -3.617191955946  5.286295596539 -9.763469958705
H  -2.581179571069  4.595671854224 -7.571857159963
H  -1.238728298962  5.670935814247 -7.874743114063
H  -4.163949872584  6.575756444118 -7.691487662785
H  -2.738636204918  7.632188700582 -7.880775163562
H  -2.823892970017  8.689581658238 -5.791458218902
H  -4.452846093240  7.984904260410 -5.677140229838
H  -3.365796682436  8.668071083483 -3.441816340023
H  -2.152184490127  7.418227189449 -3.731461612877
H  -3.711429079189  6.430817862979 -2.261901274163
H  -4.030158127693  5.685030043539 -3.808064889862
H  -6.015723266730  7.166398969125 -4.140066884714
H  -5.589609392602  8.060365758145 -2.659187033902
H  -8.105954506932  7.014188906351 -2.650922832670
H  -7.204561267218  7.488812609430 -1.183183759485
H  -8.619062644049  4.841282382375 -1.735784556877
H  -7.417538255251  4.987369051042 -0.478546938278
H  -9.678073109179  5.225239386259  0.421799405489
H  -8.703775616132  6.661134383848  0.730182284418
H  -9.875311139693  7.878469345233 -1.101201573949
H  -11.008565137104  7.243375336449  0.110133634521
H  -12.832975745062  7.020094585756 -1.297763364330
H  -11.884069519615  7.904475603136 -2.521843250256
H  -12.898550748648  5.034561857660 -2.879181802921
H  -13.828452510530  6.449610014127 -3.399299128357
H  -12.072360877612  7.116451828655 -4.971987841079
H  -10.976747949075  5.889693691933 -4.371588233109
H  -12.411971793946  4.084109666385 -5.161775335002
H  -13.677894295127  5.240941107983 -5.643928482079
H  -11.866201349947  3.268605787813 -7.259010229155
H  -13.364282664632  4.093526178143 -7.763999165052
H  -11.975652356854  5.476096668845 -9.364109053585
H  -10.568986214670  4.527627958649 -8.942950403916
H  -13.156426477539  3.354494923922 -10.092046787056
H  -11.678813585332  2.442933731134 -9.745401893714
H  -11.815325573497  2.928426397241 -12.138280454100
H  -10.456518288186  3.848232708384 -11.443123352189
H  -10.715455985645  5.296108808711 -13.376645492059
H  -12.191152729903  4.455756362168 -13.899148540495
H  -12.325091710866  6.669350043892 -14.771636564386
H  -13.507482957158  6.566585919417 -13.466674936884
H  -12.172602645279  8.696914189216 -13.590431466144
H  -10.705136503012  7.799964468175 -13.202507703571
H  -11.669078728986  7.203839499865 -10.972825814386
H  -11.633153850657  8.954937848954 -11.223566367913
H  -13.536195183937  9.093093899817 -9.564583515284
H  -13.370983562621  7.319502636856 -9.471548040894
H  -15.676174593764  7.071886297637 -10.422640209926
H  -15.846168536566  8.807494107970 -10.487082036968
H  -17.022378614179  7.901819909846 -8.544387415006
H  -15.749099471139  8.974301092158 -8.020556833920
H  -15.238301191578  5.956869766673 -8.152291909934
H  -14.350817260674  7.201196993728 -7.265208806891
H  -17.567743201118  5.772798884224 -7.640817024246
H  -18.014229006405  6.020343975025 -5.951869279101
H  -17.367193479712  3.609798030023 -6.644517426838
H  -15.698515155776  4.183968677831 -6.753713035429
H  -16.053094242286  5.057517414342 -4.289871430631
H  -17.508388459316  4.060970656026 -4.315914006965
H  -15.744475173517  2.753000180078 -3.314302706840
H  -14.623008667816  3.153753621095 -4.634873778003
H  -15.673104647165  0.377733341834 -3.708837591541
H  -15.954404767599 -0.193210092650 -5.353198010420
H  -13.777401438291  1.017994861502 -6.039521717854
H  -13.464276385542  1.257744330550 -4.328803850358
H  -13.753046947012 -1.407899856945 -5.779335724651
H  -13.726088097434 -1.292144459585 -4.014683304268
H  -11.503489256170 -1.851206764644 -4.899128374164
H  -11.477025367719 -0.268042267443 -4.081465474208
H  -9.683785941288 -0.722662539659 -7.170008258438
H  -9.503429827554 -0.828823458494 -5.418973452303
H  -8.279631144788  1.108583842230 -6.303367344015
H  -9.735035676538  1.720413421892 -7.099065751197
H  -10.810049147673  2.237136421332 -5.024912304308
H  -9.628303841670  1.338434723294 -4.070602435802
H  -7.863750189311  2.956483031823 -4.629869193861
H  -9.268192200843  3.777832348647 -3.909839437177
H  -7.214764612847  4.977256939098 -5.613247184141
H  -8.642250424632  5.843032281228 -4.996945859102
H  -9.393239617058  6.267983236392 -7.334351553646
H  -8.042333750011  5.344958398683 -7.955008481728
H  -7.834521448760  7.937021249323 -6.309282563033
H  -6.454080764212  6.984389328403 -6.873307796738
H  -6.907472988198  8.919732464282 -8.368388976238
H  -8.541791752229  8.284365260177 -8.697231358751
H  -7.934173633897  8.253592708692 -10.929463791165
H  -6.176347910815  8.507329831922 -10.776413236482
H  -6.570549156125  7.126467177726 -12.755297282712
H  -5.812388178747  6.122427353780 -11.510933185159
H  -8.169228321101  5.346649181615 -10.841816245794
H  -8.785811881116  6.234535171318 -12.229039796533
H  -7.336565730222  4.854691511758 -13.747605087405
H  -8.533204008038  3.891537173947 -12.892039565718
H  -6.730241610750  1.859792507855 -11.338685577466
H  -7.958307864875  3.023264624312 -10.824749961530
H  -6.097511165243  4.428410811928 -9.805080951842
H  -4.942492786162  3.212409280755 -10.295331347700
H  -7.279108564387  2.715919946039 -8.359208616648
H  -6.076360790520  1.523739877400 -8.816762492979
H  -5.508862282035  4.179318430233 -7.390646742742
H  -4.270223078303  2.998240388380 -7.892907041614
H  -3.744077257104  3.190621250499 -5.650594816092
H  -5.253385344845  3.807881423704 -4.940174375792
H  -4.166694357844  2.336613604488 -3.325370749844
H  -5.652233975855  1.553444719185 -3.900858375859
H  -2.874431564208  0.983506682933 -5.036606399444
H  -4.355115173482  0.159440492050 -5.482363401775
H  -4.583558184853 -0.699359124728 -3.136341759843
H  -3.051834147897  0.119046359451 -2.712724240605
H  -3.457603165630 -2.655745477993 -2.476943356569
H  -1.818258226913 -1.955232122189 -2.370323486545
H  -2.737451359998 -4.006491639209 -4.442820871014
H  -1.111544987888 -3.372608603208 -4.318081948739
H  -2.487522115134 -4.875901937572 -2.034711643961
H  -0.803073635781 -4.383129809202 -2.079591558105
H  -0.314502261595 -5.924219093603 -3.910395539169
H  -1.095840679119 -6.831414662530 -2.613995537483
H  -3.734229038219 -6.406311769359 -2.881580594333
H  -3.227417870581 -8.032217301157 -3.391673843960
H  -4.258606327836 -7.709143624486 -5.596692214560
H  -4.507187178278 -6.002871844136 -5.288092681250
H  -5.914366999478 -8.304290491852 -3.821125973329
H  -6.063533343683 -6.625889314085 -3.359976076223
H  -6.943647783956 -7.916712288505 -5.980340311170
H  -6.856559797005 -6.160646844065 -5.811811656478
H  -9.986973519736 -6.145651471499 -4.293307370480
H  -9.019216908069 -5.522284245459 -5.628521133140
H  -8.279855488253 -5.354820852727 -2.643961794926
H  -7.323564118953 -4.669648645154 -3.942923563017
H  -10.202774512108 -3.832568838973 -3.304370721064
H  -9.210189621112 -3.155752728962 -4.578511130199
H  -8.561418765174 -3.060077323998 -1.585665391777
H  -7.550508548378 -2.361178668950 -2.881584533886
H  -9.937713643151  0.165372204438 -1.503675228331
H  -9.127685335968 -1.092474933458 -0.572830618672
H  -6.956019617619 -0.501655799113 -1.699584057380
H  -7.778820656145  0.671184715299 -2.705404892410
H  -7.565730430699  0.752988514815  0.349501098456
H  -8.472035582480  1.934544591169 -0.606193285310
H  -6.252777645366  2.817115158635 -0.003564993306
H  -6.362322813596  2.617821983278 -1.766245502689
H  -4.424255383455  1.826511685603 -0.836968477630
