50
pair_id=pair_3f18c776b3702a389f8b start=2 nco_site=1 oh_site=2 attack_angle_deg=105.000000
C   0.159883306100  2.323753869400 -0.000995589400
C  -0.915882950700  1.477548341000 -0.000889906500
C  -0.733639648400  0.081070027900 -0.000518832500
C   0.583222895200 -0.449703940800 -0.000364756500
C   0.783355439400 -1.844419106000 -0.000205264700
C  -0.284573324100 -2.698870241200 -0.000232302300
C  -1.590540479800 -2.199499701100 -0.000313781500
C  -1.818214859700 -0.843116478200 -0.000342842400
N  -3.121474537100 -0.417891108100 -0.000126661600
C  -3.872846675800  0.506806114300  0.000830545000
O  -4.755064004400  1.257563566600  0.001595702000
C   1.674770097700  0.460296976500 -0.000398062000
C   1.463863819100  1.820274224000 -0.000699877800
N   2.939587000300 -0.071992494900 -0.000175286400
C   4.110474945300  0.148126150600  0.000736432600
O   5.267788579400  0.154240520700  0.001452554500
H   0.010107250600  3.392630684300 -0.001358245900
H  -1.917456576800  1.881777715100 -0.001153599100
H   1.795046022600 -2.219835175600 -0.000080892500
H  -0.129086437300 -3.766877366400 -0.000148362900
H  -2.432680020500 -2.873840173600 -0.000261212800
H   2.307590927200  2.494321811000 -0.000741655800
C  -5.925474558242 -3.584064097521  5.951417976672
C  -5.444787930403 -3.451506417287  4.670524265151
C  -6.313211905104 -3.499385163231  3.578080099052
C  -7.668148402077 -3.681915807482  3.804812931042
C  -8.153784793088 -3.815361070785  5.098658947680
C  -7.290406859503 -3.767949045820  6.181727535720
O  -7.662943236543 -3.888455000078  7.490873006357
C  -9.029534163486 -4.084247951206  7.795107786524
C  -9.127486786202 -4.195128645700  9.318034423452
O  -8.462515408048 -5.330333291382  9.800913255665
O  -5.733130514099 -3.358023634796  2.349009011395
C  -6.555781467582 -3.391088434117  1.199829920940
C  -5.631960192004 -3.198302119737 -0.004597923245
O  -5.030862428153 -1.932248363804 -0.002742988874
H  -5.258943071451 -3.546765245837  6.798223102568
H  -4.391602974858 -3.310155249260  4.487624331159
H  -8.369776143838 -3.724321631346  2.986932391088
H  -9.214248293457 -3.955424812281  5.236372041994
H  -9.395010741105 -5.011153160617  7.333638789602
H  -9.633414468794 -3.238131094230  7.442760766648
H  -8.711579378728 -3.281315037803  9.765342751051
H  -10.172979789794 -4.295852829048  9.615975379122
H  -7.562566139667 -5.308261708367  9.452458693101
H  -7.077598407630 -4.353506643272  1.120244563926
H  -7.292605922891 -2.577609246948  1.233446092152
H  -6.209210167454 -3.267992221944 -0.928604194823
H  -4.870052850823 -3.990522127776  0.004952000107
H  -4.606464092049 -1.814925374850  0.856422273276
