357
pair_id=pair_86897ffb45df49ff7132 start=4 nco_site=2 oh_site=2 attack_angle_deg=105.000000
O   6.071138798300  2.480874245000 -0.539966886600
C   5.281563264000  1.703290642200 -0.203729312400
N   4.583194840700  0.895553337000  0.323028101100
C   3.469566272400  0.097992287700  0.217823463600
C   3.141003666300 -0.720825069600  1.291776942100
C   2.027239290200 -1.535897111400  1.217504870200
C   1.230376574900 -1.552900220000  0.080976745700
C   0.000129982500 -2.417918638600 -0.002577497200
C  -1.230253681400 -1.553071685200 -0.084299228600
C  -2.021435998300 -1.526209840700 -1.224619472200
C  -3.134787785500 -0.710465627800 -1.297435226200
C  -3.468763238200  0.098981255200 -0.218056518800
N  -4.581846364100  0.897438299100 -0.321975352000
C  -5.282652338400  1.701065266500  0.207899688400
O  -6.073694902800  2.476057311700  0.546553031600
C  -2.680498724400  0.084975519400  0.931153113200
C  -1.572915706700 -0.735626567500  0.987803746500
C   1.567638803400 -0.726117648500 -0.985674162700
C   2.675451036000  0.094047662700 -0.927432521900
H   3.761402694000 -0.710428411900  2.174324307200
H   1.779230559000 -2.170944736200  2.055913696000
H   0.058433977900 -3.056457871800 -0.886664495400
H  -0.057740878700 -3.058561817600  0.879976911700
H  -1.769229849800 -2.154027086400 -2.067217719300
H  -3.750781892300 -0.692421148900 -2.182945547900
H  -2.943609239700  0.716629811900  1.766859046600
H  -0.960209384700 -0.742612630800  1.877475508100
H   0.950329509800 -0.725172817000 -1.872181069100
H   2.934211927200  0.733133578500 -1.758835180200
O   3.812220719153  4.607519657882  26.055169387590
C   4.912460852107  4.095691460769  26.781577330213
C   6.196069121804  4.087861673396  25.963582959442
C   7.434267822490  3.694308576310  26.754447716901
C   8.673835957022  3.715990735973  25.873900900846
O   8.888915820083  4.977802908957  25.255071920401
C   9.379279013732  5.982994008205  26.144413934240
C   8.474334865452  7.205599247122  26.223385331102
C   8.317398834919  7.915248525060  24.879476545680
C   7.541105319416  7.100683564160  23.856990528522
O   7.419170817513  7.769467035057  22.608739647382
C   6.377875121873  7.271742410822  21.775834918150
C   6.585345014086  5.834431159134  21.286540158973
C   6.062455115397  4.750121355990  22.232345574517
C   4.544141476916  4.718525113196  22.344599455348
O   4.091852346969  3.710671725956  23.249388400971
C   2.727876207379  3.356320617837  23.034293347422
C   2.239892216130  2.307426932678  24.020689063414
C   0.794700773536  1.888088552842  23.770648277197
C   0.368526939943  0.712637561463  24.638728398623
O  -0.902767235001  0.192295915380  24.263806181207
C  -1.397786626144 -0.755029406013  25.205622169194
C  -2.659832837469 -1.446757320151  24.713941444811
C  -3.280856171507 -2.373767988320  25.752280431329
C  -4.555637452638 -3.026977446267  25.239640567546
O  -4.305691266445 -3.855587332672  24.111078198060
C  -5.482925683427 -4.201946093890  23.392645083667
C  -5.988408832274 -3.059070637311  22.524277596568
C  -4.874015673297 -2.520819263096  21.639254419405
C  -5.250738881370 -1.271812399221  20.859896823533
O  -4.122201704362 -0.703451811499  20.200851769211
C  -4.439855189124  0.514191579509  19.533305494711
C  -3.198401467537  1.324660245182  19.194202716316
C  -3.522854998283  2.621492747548  18.457688069358
C  -3.892991366359  2.364758298768  17.005480676583
O  -2.803551780725  1.797396329632  16.289438419859
C  -3.119551955535  1.525648516870  14.926579274333
C  -1.939601468203  0.901035615119  14.200348865514
C  -2.177693186564  0.660625794715  12.709956312909
C  -2.240488988993  1.936649410237  11.885033256225
O  -2.524988116591  1.686450848769  10.509926311569
C  -2.392683834723  2.860240889244  9.711051802697
C  -3.171472237308  2.765287037393  8.406775376165
C  -2.709342677049  1.602267166562  7.538061154798
C  -1.365581954836  1.858797711350  6.868684572424
O  -0.348342135706  2.207058589549  7.800640877817
C   0.954744773910  2.288726021687  7.220582123588
C   2.002639964504  1.588795414266  8.073171415457
C   1.708705813570  0.099924613100  8.243715454449
C   0.500543170908 -0.179756224813  9.124738908965
O   0.168487190294 -1.562892121259  9.157853387948
C  -0.882725795464 -1.839483478623  10.075856339062
C  -1.273462516238 -3.308908070406  10.075547710083
C  -2.393939443240 -3.640925606617  11.060973088621
C  -2.043119182603 -3.281389422143  12.499113526521
O  -2.981833067973 -3.770295593860  13.452406862648
C  -2.781249117419 -5.140957389731  13.791712075058
C  -2.002761110593 -5.323064290594  15.088698860681
C  -0.626783407965 -4.671651245671  15.055211853076
C   0.174816370489 -4.877369132177  16.332485180320
O   1.442411904571 -4.219117155606  16.301860889599
C   1.484040146990 -3.038974143003  17.089695858384
C   0.638613516491 -1.911685858668  16.521311090420
C   1.090358089930 -1.504261379974  15.117362609928
C   2.312712226179 -0.596797350315  15.124347331608
O   2.705649232122 -0.145093690901  13.833628718378
C   1.670677601036  0.541585151757  13.138486856668
C   2.208445530069  1.613467457437  12.205443916006
C   3.043818427377  2.651595925095  12.941306164019
C   2.264563626719  3.332882499296  14.058247304715
O   1.013118554004  3.834348532987  13.606336281966
C   0.187346451902  4.274846272188  14.680390399473
C  -1.147114522988  4.811701440439  14.191355129143
C  -2.120282857010  5.153138126385  15.314971361821
C  -1.673141774352  6.340865420360  16.153288813746
O  -0.428575194367  6.145322941964  16.805557528127
C  -0.497364225140  5.210256141052  17.876513356862
C   0.790570835826  5.181084913348  18.685482508387
C   0.754968081204  4.187930478158  19.846469833381
C   0.715289521631  2.735364468248  19.394883782372
O   0.691668236000  1.824251487316  20.490482623134
C   0.600725417770  0.472178743739  20.051489325619
C   0.448537273921 -0.515272914616  21.200957088958
C   0.336171086609 -1.963608518427  20.730372705770
C  -0.953156238094 -2.245238615742  19.972881644624
O  -0.972564362146 -3.547412406348  19.396310030073
C  -2.286497661229 -4.001171784875  19.103881549306
C  -3.070415069385 -3.057424878673  18.203848727117
C  -4.453462035789 -3.581361717790  17.835693052196
C  -5.198660416841 -2.630284534751  16.914586906342
O  -6.499404720004 -3.106686074634  16.596137169287
C  -7.281398149729 -2.159637167966  15.887008889331
C  -6.697520417876 -1.801401240926  14.530078438974
C  -6.411401291716 -3.037708209449  13.694516085274
C  -5.816971752856 -2.683571913338  12.341968599675
O  -6.697431926175 -1.865825438893  11.580661787581
C  -6.236242234145 -1.622829231109  10.258956725159
C  -5.088949373352 -0.626841313660  10.188697427112
C  -5.491470071599  0.776703219007  10.631850477637
C  -6.015165062447  0.856291674812  12.057357928309
O  -6.123408995887  2.204564545823  12.501485716374
C  -6.677176715276  2.318767767814  13.809238792042
C  -6.466712187472  3.711963230642  14.382679607891
C  -6.997251737932  3.873090680012  15.801110451238
C  -6.681565622710  5.253532543393  16.354850849994
O  -7.324279196868  6.275086615184  15.600277595535
C  -6.691694474461  7.545246223395  15.717018873285
C  -5.531558473881  7.713797119722  14.746460856844
C  -4.901882565896  9.099289634459  14.805389568295
C  -3.790620925970  9.261614195125  13.779981911787
O  -2.722372200192  8.352208593987  14.004657653082
C  -1.723104103365  8.411504186207  12.991554454669
C  -2.113882332291  7.663495112214  11.725045734268
C  -0.968525911161  7.561347931692  10.722095864490
C  -1.356673721796  6.805941693511  9.461149011028
O  -0.278647322436  6.721292539589  8.535894893531
C  -0.553066441609  5.861052899770  7.437595517841
C  -1.487145942327  6.474057404184  6.401109758960
C  -1.936162538509  5.479841616332  5.330846186686
C  -0.791623419212  4.878452375765  4.528084775493
O  -1.246370571289  3.848610212809  3.655613640498
C  -0.186174252422  3.223740418459  2.945267543601
C  -0.663455072224  2.048242518567  2.102794143577
C  -1.311185730945  0.952607541068  2.943110169181
C  -2.710780256996  1.340784527844  3.398743655858
O  -3.594784828696  1.464620321378  2.301985899044
H   3.881536290590  4.319274170437  25.115000672485
H   5.024992186222  4.715533115360  27.678588747040
H   4.661759295558  3.086646880167  27.131164732823
H   6.074991978198  3.418527111613  25.104261251853
H   6.345195586717  5.082052416192  25.533428162220
H   7.294148827325  2.700946922357  27.198809402984
H   7.562833350990  4.380503886948  27.598923548292
H   9.580119488017  3.439762551488  26.425358946163
H   8.570903042033  2.987953198107  25.061087474478
H   10.371761025607  6.268790741070  25.776656207819
H   9.534569877210  5.540645702875  27.135641548542
H   8.865852307718  7.905619814782  26.973257225987
H   7.487907818030  6.902725737926  26.590711290087
H   7.814232678211  8.881270027669  25.009725942352
H   9.303634803697  8.156997999272  24.467834479304
H   6.534807994040  6.885940290717  24.231286954116
H   8.048523617952  6.148327685492  23.672019940210
H   5.428169932360  7.386494847168  22.307494467859
H   6.334938508299  7.964545877963  20.925853286235
H   7.656031685920  5.690877792893  21.097326325325
H   6.098975083966  5.701163580133  20.311604693389
H   6.490759333787  4.867590573404  23.229495031031
H   6.402931727596  3.761346599764  21.900621834159
H   4.148192176063  5.676371417874  22.697322975015
H   4.098272344742  4.533052674504  21.361196727319
H   2.639602409624  2.976020242656  22.010725874558
H   2.120275044543  4.265559879316  23.099780636339
H   2.350392202677  2.676922654377  25.046089716309
H   2.897635426822  1.432958078625  23.958950690693
H   0.664568370359  1.626672653112  22.716080478823
H   0.116302812576  2.733480395407  23.931794681257
H   1.093841402117 -0.105026109678  24.561986313194
H   0.329815001354  1.007378629088  25.693340689839
H  -0.609640764382 -1.488683530768  25.408305850658
H  -1.591211724612 -0.222537105365  26.143375272089
H  -2.430427238748 -2.009104309295  23.802388911282
H  -3.387972824380 -0.687151582565  24.407939472147
H  -2.560142025352 -3.153086512605  26.024133701102
H  -3.480468386197 -1.815616694944  26.675292448709
H  -5.282893233969 -2.259010392541  24.958713795040
H  -5.026435536161 -3.650624410307  26.008878964881
H  -6.240221183962 -4.550497184471  24.104490438835
H  -5.216888621496 -5.062188506138  22.767560395179
H  -6.838779014411 -3.380682153798  21.910326383257
H  -6.374753275902 -2.250570484612  23.154130677228
H  -3.999199998159 -2.295852651197  22.257485002349
H  -4.537352765122 -3.300665392924  20.950692744195
H  -6.019936230068 -1.488863794776  20.110553121205
H  -5.661817770087 -0.515016718735  21.536994948943
H  -5.106005560946  1.100241443211  20.176157039416
H  -5.009572231793  0.263704631510  18.633126624376
H  -2.648027914613  1.527906440100  20.121362911088
H  -2.525844007068  0.715272639602  18.580565079530
H  -2.657300408292  3.292921510384  18.482769615018
H  -4.329511630979  3.153581062479  18.976603445566
H  -4.738149601118  1.672711700924  16.934056253661
H  -4.188374213779  3.290042799246  16.499537194852
H  -3.985894418218  0.856447596541  14.901215471856
H  -3.421539890026  2.464832284623  14.453216900524
H  -1.690996091827 -0.039444374386  14.705760007361
H  -1.065470859506  1.545422842707  14.335419335415
H  -1.384125774266  0.028923512008  12.298357504201
H  -3.102095923923  0.092319042839  12.570904694592
H  -3.019850323474  2.606421098946  12.263809738841
H  -1.287670152803  2.474993051362  11.939758821936
H  -1.322389536424  2.994960371228  9.518643692704
H  -2.728494092949  3.719210983089  10.304025892821
H  -4.236740009503  2.654860525568  8.643208907086
H  -3.093033782276  3.702417355451  7.843921766359
H  -2.636030035112  0.707678706042  8.166635834871
H  -3.463614004861  1.369574004799  6.774601005194
H  -1.439313407387  2.677780896658  6.147064818814
H  -1.033154845365  0.971841539689  6.316756668221
H   0.927400964854  1.849281039589  6.217119482109
H   1.189596184238  3.351364571259  7.091733221216
H   2.039660191374  2.066246909195  9.058540732478
H   2.997724570776  1.732650358929  7.632147358828
H   2.576703214469 -0.422823909002  8.664265084379
H   1.544276567871 -0.358015001639  7.261894019523
H  -0.379471909784  0.360954428867  8.764457703718
H   0.680881978801  0.160311480167  10.149688641004
H  -1.740130546740 -1.206124359832  9.822439178356
H  -0.534278988267 -1.537238429543  11.067865812022
H  -0.384722981461 -3.906355098105  10.308965308626
H  -1.556015057875 -3.600507255472  9.056969529882
H  -3.313140045855 -3.121892936444  10.770958105754
H  -2.640540664978 -4.707238009305  11.003110922892
H  -1.999108649715 -2.195681774544  12.628789997968
H  -1.048274540574 -3.659465205963  12.750570873936
H  -3.775397758495 -5.598579229756  13.864563470726
H  -2.270931412627 -5.640965404281  12.961672711781
H  -2.580457626481 -4.894845522462  15.914040280623
H  -1.900548089610 -6.389460232392  15.324712797746
H  -0.048141467853 -5.057075965757  14.208272176658
H  -0.740084430511 -3.600206547776  14.866968056453
H  -0.382710414289 -4.532653557727  17.209544944680
H   0.369903819370 -5.943747513568  16.494251555970
H   1.177040138115 -3.309972151696  18.106556534145
H   2.535813174297 -2.738912312897  17.149339410735
H  -0.410629905322 -2.225894828232  16.507297946422
H   0.665422516310 -1.037803821532  17.183686392441
H   0.272082549886 -1.001261933522  14.592339546402
H   1.308353753334 -2.398056931412  14.522107460209
H   3.177159005023 -1.113399704451  15.555333003401
H   2.138320350497  0.286288525258  15.749007010904
H   1.086393928694 -0.208728959908  12.593391993796
H   1.003578151643  0.995041915877  13.877607375633
H   2.807482439410  1.137949871977  11.419278155320
H   1.375512116285  2.114147741386  11.695625157381
H   3.944608535910  2.176880486478  13.349937810268
H   3.396243087466  3.411560243995  12.232817850447
H   2.069186916331  2.629545896878  14.874769365644
H   2.827597496570  4.169122276888  14.489601732116
H   0.733084177006  5.043404608760  15.239323937521
H   0.034565502022  3.427622059467  15.357604151022
H  -0.968499819290  5.691368589249  13.565690185638
H  -1.593217709740  4.070540176117  13.519944166131
H  -3.114717966757  5.351997792994  14.895705631054
H  -2.243248768084  4.276846775891  15.958322140912
H  -2.417959140385  6.605558785652  16.913186396740
H  -1.551824628790  7.227518532923  15.521543620101
H  -1.344491713705  5.479593648114  18.516681530979
H  -0.711069992549  4.224100807184  17.455083863914
H   1.627243015187  4.944844675602  18.018431064078
H   0.993478512145  6.194480457541  19.052680976910
H  -0.112398885132  4.388926915085  20.485144925546
H   1.628070015626  4.332247709281  20.492226547485
H   1.588461768548  2.499920098900  18.776306701169
H  -0.170968120591  2.544572998518  18.780826853398
H  -0.249807869797  0.402510931752  19.366750014529
H   1.499252052542  0.246460360856  19.466454869271
H  -0.433565519210 -0.248034413264  21.794430280068
H   1.304085508616 -0.402604177624  21.877275313041
H   0.405469926666 -2.655162097377  21.578879401729
H   1.191039744452 -2.207154729381  20.090909969225
H  -1.088537790328 -1.529072771700  19.156796510998
H  -1.817433431185 -2.138342137499  20.638671745488
H  -2.800085632647 -4.166008898472  20.056140734489
H  -2.191012912753 -4.987993543128  18.637882330531
H  -2.494740143336 -2.861896487689  17.293059720109
H  -3.175767942349 -2.081737477011  18.689779196598
H  -4.376621865665 -4.564554106852  17.358860266273
H  -5.049918052480 -3.750089022138  18.738577722200
H  -4.638688490575 -2.491128217772  15.983820783288
H  -5.299286776771 -1.644600526220  17.380200033336
H  -8.272799971309 -2.611491229238  15.767268661879
H  -7.413275984656 -1.276254397674  16.523010576068
H  -5.774323548937 -1.225588411807  14.658708670010
H  -7.378390193276 -1.137671534058  13.983435632151
H  -7.340930604685 -3.598948746972  13.546311844250
H  -5.742820376208 -3.710731528564  14.245505581383
H  -4.874464691127 -2.143617735926  12.476098748011
H  -5.597513723140 -3.586437567477  11.760405876807
H  -7.095625105249 -1.247306934488  9.692064446427
H  -5.967212950012 -2.586822053968  9.811090627613
H  -4.688348141460 -0.592647429892  9.166918358019
H  -4.259740338089 -0.978598886441  10.809527559847
H  -6.245926482008  1.186623440333  9.950786373217
H  -4.633890551625  1.453245739614  10.552416713180
H  -6.998865652979  0.380835955775  12.138650988984
H  -5.344449265628  0.331055600404  12.743905678648
H  -6.212479769810  1.565216611477  14.453693418564
H  -7.743349491832  2.074363600135  13.748894946132
H  -6.934290894487  4.453445876756  13.724822502694
H  -5.397570007415  3.949609485080  14.355865534468
H  -8.082153184727  3.719094353867  15.806745594132
H  -6.584423227605  3.091497509002  16.449369179293
H  -7.008994379337  5.357167424089  17.396162970880
H  -5.600960382446  5.430864008609  16.339417699816
H  -7.461544678726  8.300711143926  15.522836157175
H  -6.371703167602  7.688356815123  16.755120834983
H  -4.766624340325  6.954768526116  14.936900042042
H  -5.885226547331  7.508623470980  13.729644977707
H  -4.497558864091  9.274754059381  15.808774423793
H  -5.674256040367  9.864049610473  14.656706598737
H  -3.375155149709  10.276048004524  13.801445050221
H  -4.180662159499  9.092108395294  12.771406902432
H  -1.495232956024  9.462182403038  12.780651584861
H  -0.808852158782  7.984522279106  13.418264537962
H  -2.975404077873  8.147529422502  11.252937240388
H  -2.464583786557  6.660406729411  11.992736884332
H  -0.615490370817  8.562321646133  10.449892601693
H  -0.105220471467  7.068988007365  11.184217516660
H  -2.201651779188  7.296334669803  8.967814150776
H  -1.676402890192  5.789261765152  9.712011265792
H  -0.953963066752  4.920089791298  7.828673554418
H   0.415203543724  5.618489394850  6.986901167989
H  -0.990422844440  7.332224837267  5.934504592379
H  -2.365375260067  6.891443751202  6.905703047003
H  -2.645595451434  5.949594393855  4.638907164813
H  -2.499268004251  4.666490168111  5.799934306590
H  -0.037651494373  4.443029942586  5.190891797329
H  -0.288161190111  5.644729996537  3.928548861220
H   0.556499174505  2.887583930762  3.677273327468
H   0.294596364314  3.989306477464  2.324846485929
H  -1.394054981596  2.405506546620  1.367910618786
H   0.176531332610  1.641436631540  1.524316918134
H  -1.386093663874  0.025486557100  2.361432509970
H  -0.671386815515  0.719143854920  3.802716416880
H  -2.679996358091  2.301001274027  3.928648223379
H  -3.119702486633  0.596195247588  4.094630735555
H  -4.481044245189  1.780647390652  2.594445393000
