219
pair_id=pair_d2c043f5b3c834e8f59f start=1 nco_site=1 oh_site=1 attack_angle_deg=105.000000
C   0.284581330700 -2.856296821600 -1.075228802200
C   0.162525852300 -1.597457455400 -0.204947230400
C   0.845005092100 -1.904537770700  1.131145514700
C  -1.328669048700 -1.291252660800 -0.005722197300
C  -1.570475083400  0.087872243400  0.610820554000
C  -0.957110448900  1.181183157800 -0.269036073900
C   0.549683356000  0.994266183800 -0.497159448500
C   1.002261202900  1.956948628000 -1.604047402300
C   1.307902346100  1.391971275300  0.789954740500
N   2.703572888200  1.171113099200  0.732383851000
C   3.569168631800  0.422084370500  0.420855653800
O   4.549802891200 -0.154504117100  0.185714036600
C   0.831914196600 -0.441038993400 -0.968894226600
N  -2.963431143600  0.322177330700  0.785377568700
C  -4.013442667400  0.395831636900  0.235484889300
O  -5.116375984200  0.510373170000 -0.104212560000
H  -0.200973184600 -3.701335647600 -0.592771820900
H  -0.180392270100 -2.708228461400 -2.047427195000
H   1.331183276900 -3.106678504200 -1.231501354200
H   0.669336818000 -1.138529666000  1.878580217000
H   1.919144116400 -2.004976794700  0.992809095200
H   0.466878515000 -2.844074041600  1.529162011100
H  -1.834031280800 -1.321260360500 -0.974603031900
H  -1.780892848400 -2.056062502900  0.628522771700
H  -1.151102782700  0.129873374500  1.620567689400
H  -1.463600897200  1.156635133100 -1.237165534300
H  -1.148305840500  2.158375955300  0.179489575800
H   0.772454559600  2.985326617500 -1.333946347600
H   2.075584442100  1.874781849200 -1.759270064200
H   0.502011787900  1.732699420800 -2.543044673500
H   0.909588571900  0.871441133300  1.663883790100
H   1.176321145700  2.466024633200  0.954683369000
H   0.487257832900 -0.500634134700 -2.004285460000
H   1.911225245100 -0.607683746400 -0.987976068100
O   2.045447166059  0.140187881741 -1.790209081676
C   1.248000473719 -0.007343952388 -2.947380060427
C   1.848163472998 -0.968640188469 -3.965749255281
C   1.057631727337 -1.052174502484 -5.266774072479
C   1.123142956916  0.246478474074 -6.057466541619
O   2.467797476942  0.650071254515 -6.284004199172
C   2.561217189614  1.821811766542 -7.088768040712
C   4.007593990444  2.200679750516 -7.362442272731
C   4.160257066415  3.421585018531 -8.259683629244
C   5.621985361873  3.663357790125 -8.598800515366
O   6.189813859893  2.535254321887 -9.257956869433
C   7.608570374682  2.590899208614 -9.320995142354
C   8.195605613645  1.360958065284 -9.998185490370
C   7.692330541267  0.062578527355 -9.381749802994
C   7.976045076120 -0.014334941032 -7.889136336416
O   9.344806857141  0.239734753834 -7.595091016565
C   9.558876735670  0.609449577662 -6.238605936234
C   9.390162471032 -0.545611185069 -5.261822265299
C   9.479402883004 -0.114714988232 -3.800458212696
C   8.259152908716  0.695625999344 -3.390724842060
O   7.060836681202 -0.039201078129 -3.614306741678
C   5.946368481293  0.768010574007 -3.968071504682
C   5.642355992651  1.889170608446 -2.971126104888
C   4.165509290119  2.259517414997 -2.954504794565
C   3.886021617707  3.499831929311 -2.117694911462
O   4.397431719338  4.688187197130 -2.717018251926
C   3.400542025932  5.475258786382 -3.364211024684
C   2.695862793985  4.771254306681 -4.513972966515
C   1.570600931731  5.591033521978 -5.136163415752
C   2.072584309103  6.841439058850 -5.836486493609
O   3.028258963972  6.543891443281 -6.848405276195
C   3.329618606476  7.689976308006 -7.639284581295
C   4.554152356117  7.503123318720 -8.515015632022
C   4.907431291809  8.753015831502 -9.319449101027
C   5.109249786584  9.979198124590 -8.431893720393
O   3.877978939685  10.571721581487 -8.013186217244
C   3.472981111850  11.622271418661 -8.885140771085
C   2.056710454992  12.126051631293 -8.634014048302
C   1.000085939322  11.045534694101 -8.862987600436
C   0.806920258930  10.170571543041 -7.634801901189
O   0.115567466899  10.858318561810 -6.600396072281
C  -0.022377304515  10.065900024758 -5.425121992087
C  -0.818978092035  10.783018964545 -4.347032536373
C  -0.882661582356  10.019748528800 -3.027431678234
C   0.505459162451  9.707669335368 -2.479958281478
O   1.398355722586  10.804229853776 -2.591443711206
C   1.119882812506  11.861222797776 -1.687262831974
C   2.112654700830  13.007253486041 -1.827178726014
C   2.055922883524  13.685188297330 -3.191558558100
C   2.567631373627  12.790097512923 -4.309622017710
O   3.891536587785  12.338251275126 -4.057474140279
C   4.475318967267  11.676466055722 -5.175827051027
C   5.645213015478  10.798622518054 -4.750160440873
C   5.196110151794  9.506713043776 -4.071061043635
C   4.310101777474  9.736186453057 -2.855675796140
O   3.975534462372  8.541404579229 -2.160558972366
C   5.092311516425  7.968490230590 -1.488414273025
C   4.681489875656  6.987440522945 -0.399219297443
C   5.865013247348  6.498267497087  0.433474102187
C   6.878852892178  5.691691224682 -0.366443178212
O   8.040635498921  5.402654878890  0.401470472193
C   9.030279073634  4.693826478701 -0.328983536921
C   8.715656154973  3.212532146838 -0.462434427059
C   8.473429778177  2.570906484584  0.893666678074
C   8.272160509802  1.066861877500  0.799415479610
O   7.144543383281  0.714473229137  0.007740254961
C   6.963574073761 -0.698514252895 -0.051858107544
C   5.722299535801 -1.100130759670 -0.832568783309
C   5.519014441516 -2.607985697560 -0.893033467887
C   4.244936554903 -2.978299367270 -1.638929363127
O   3.081158799124 -2.477114977858 -1.015446050045
H   2.371525599214 -0.747581188384 -1.496979728236
H   1.125436171211  0.992893253305 -3.377735787748
H   0.247009227326 -0.336432967720 -2.641533767389
H   2.872333610983 -0.652355312672 -4.190025193959
H   1.941389538692 -1.960841643127 -3.507549903807
H   0.016056291181 -1.324647511548 -5.057433658883
H   1.460747635252 -1.860748450287 -5.889267302551
H   0.627050648017  0.143508402195 -7.029809949957
H   0.617146517621  1.058352503028 -5.524587282075
H   2.033756902289  2.634350710042 -6.578383686924
H   2.030553602281  1.632837055254 -8.028403873372
H   4.528501695042  2.365797953594 -6.413339249613
H   4.519152077813  1.346261952200 -7.820705705224
H   3.714877592283  4.303922597911 -7.783640386745
H   3.598120364278  3.263839361281 -9.187056043135
H   6.195571146731  3.851068916225 -7.684306741955
H   5.751299675105  4.534245842794 -9.251470305518
H   7.984020027798  2.678582678070 -8.295615665208
H   7.890657757964  3.511290182301 -9.845743895258
H   7.947120217717  1.384252140215 -11.066549832457
H   9.290892862165  1.392881409178 -9.941169611804
H   8.162279831599 -0.792717076562 -9.883068779771
H   6.614273344087 -0.036134002290 -9.560992116522
H   7.367355708757  0.720684018301 -7.350898404745
H   7.716350506340 -0.999466688220 -7.485070773246
H   10.573265340047  1.019063715787 -6.174129299842
H   8.881642635430  1.436712357456 -6.003430111063
H   8.418236711464 -1.022964480871 -5.425457202238
H   10.136440454267 -1.316251497958 -5.490341426429
H   9.543177178165 -0.999426507437 -3.155192198700
H   10.401280755623  0.453807406837 -3.628641844352
H   8.287993228187  0.961287558538 -2.327914290368
H   8.208298261580  1.632379299867 -3.955034483631
H   6.108213858327  1.157724214840 -4.979310129307
H   5.093415359525  0.084344277320 -4.041239439830
H   6.246530140908  2.775768441333 -3.196534566575
H   5.950995006824  1.580606823942 -1.965637861128
H   3.583388294584  1.409434012257 -2.580993681424
H   3.826076838979  2.418946059497 -3.982176269783
H   4.359792917735  3.402989969631 -1.133987808717
H   2.813918454079  3.632239695318 -1.929003525151
H   3.901430630785  6.383862266669 -3.715922829448
H   2.678589774295  5.798388444762 -2.606245857932
H   3.435675178731  4.517668431496 -5.280903165293
H   2.291132940652  3.816866538294 -4.159650250053
H   1.028092566417  4.977640834217 -5.866276671423
H   0.836359971943  5.857045351362 -4.365493596219
H   2.544482462857  7.525785856115 -5.123137526198
H   1.243870148211  7.386267052191 -6.303184791922
H   2.451211084764  7.917159065881 -8.252694520001
H   3.482643881481  8.535122306361 -6.959769568345
H   4.393285344720  6.646651300641 -9.180401896325
H   5.399410495259  7.220274205532 -7.876813431475
H   5.808891554912  8.564962657524 -9.917527705972
H   4.111068460676  8.965579152734 -10.041028981672
H   5.707379060566  10.750178164009 -8.932891668275
H   5.665596443076  9.699575791383 -7.531594000269
H   3.562049071629  11.257491591008 -9.914319765440
H   4.200663388588  12.434967744799 -8.772135982889
H   1.858880992884  12.992544304462 -9.279379904106
H   1.973789462935  12.495286005361 -7.605819801412
H   1.280052633596  10.439500366938 -9.733585102169
H   0.032558075678  11.499606356718 -9.111271710094
H   0.236740602656  9.264638609852 -7.872123948576
H   1.777662749367  9.864278938395 -7.234897664699
H   0.985825092757  9.827390277351 -5.070076262344
H  -0.503421720692  9.119716479575 -5.695534274950
H  -1.826528184460  10.995690261989 -4.724441570502
H  -0.363761782201  11.765100790176 -4.181105026336
H  -1.447163296283  10.604796754173 -2.290897730800
H  -1.451420064557  9.090752079320 -3.158208309891
H   0.966309230246  8.885768568256 -3.040480561517
H   0.476747550605  9.382649062720 -1.433314244185
H   1.140192249709  11.443496141595 -0.673718659878
H   0.100701391581  12.215552713962 -1.871010635188
H   1.944647514453  13.744056543394 -1.030522478164
H   3.124821041392  12.617292816728 -1.670680424722
H   2.665026966828  14.597692753088 -3.174249872887
H   1.030638280584  14.012746516575 -3.402464948808
H   2.557568229662  13.309409124527 -5.275001025709
H   1.940338772251  11.898952528916 -4.410343820766
H   3.706398942131  11.075452036901 -5.674655621937
H   4.787477317507  12.453700649880 -5.883616562497
H   6.273434327775  11.374999321563 -4.061442010241
H   6.285492040595  10.568570699387 -5.610663848351
H   4.657014019739  8.876049637013 -4.786604660830
H   6.074052409997  8.920307323037 -3.777710386289
H   4.780359153541  10.427618554672 -2.148054199961
H   3.364258785013  10.204728558436 -3.150484450238
H   5.688188289328  8.779675503956 -1.055493717550
H   5.716908002632  7.474734334165 -2.239375445878
H   3.934860428380  7.470887630689  0.242297378859
H   4.166769441511  6.134880027914 -0.853043039308
H   6.377672383536  7.356882741723  0.881763985580
H   5.520795868944  5.894619875409  1.281887585165
H   6.440328567480  4.751443226193 -0.715880657916
H   7.200903034613  6.245049015899 -1.254300728764
H   9.162984588246  5.177002621667 -1.304038396973
H   9.970479531781  4.831740835486  0.217376062090
H   7.832994097243  3.068119619398 -1.094102657598
H   9.534265844649  2.695684835606 -0.978511968950
H   9.311505691225  2.800803353541  1.563244429205
H   7.592711392844  3.031050404605  1.356273513840
H   9.153326485074  0.591464730955  0.354200837270
H   8.134947003954  0.626417720473  1.794134430520
H   6.905998276307 -1.077986803237  0.974338106343
H   7.859939488891 -1.135480116071 -0.505940260956
H   4.842002508160 -0.618963788670 -0.391882438887
H   5.792086890496 -0.700173808291 -1.848368046523
H   5.477834199889 -3.013745854717  0.124081557675
H   6.390599740885 -3.078730025371 -1.364567054792
H   4.268819543439 -2.566038200398 -2.654517058400
H   4.141158036988 -4.065876667879 -1.750112319903
H   3.027768970512 -2.817903029267 -0.093553857112
