388
pair_id=pair_7281369a0f23aafabcfb start=3 nco_site=2 oh_site=1 attack_angle_deg=105.000000
C   0.284581330700 -2.856296821600 -1.075228802200
C   0.162525852300 -1.597457455400 -0.204947230400
C   0.845005092100 -1.904537770700  1.131145514700
C  -1.328669048700 -1.291252660800 -0.005722197300
C  -1.570475083400  0.087872243400  0.610820554000
C  -0.957110448900  1.181183157800 -0.269036073900
C   0.549683356000  0.994266183800 -0.497159448500
C   1.002261202900  1.956948628000 -1.604047402300
C   1.307902346100  1.391971275300  0.789954740500
N   2.703572888200  1.171113099200  0.732383851000
C   3.569168631800  0.422084370500  0.420855653800
O   4.549802891200 -0.154504117100  0.185714036600
C   0.831914196600 -0.441038993400 -0.968894226600
N  -2.963431143600  0.322177330700  0.785377568700
C  -4.013442667400  0.395831636900  0.235484889300
O  -5.116375984200  0.510373170000 -0.104212560000
H  -0.200973184600 -3.701335647600 -0.592771820900
H  -0.180392270100 -2.708228461400 -2.047427195000
H   1.331183276900 -3.106678504200 -1.231501354200
H   0.669336818000 -1.138529666000  1.878580217000
H   1.919144116400 -2.004976794700  0.992809095200
H   0.466878515000 -2.844074041600  1.529162011100
H  -1.834031280800 -1.321260360500 -0.974603031900
H  -1.780892848400 -2.056062502900  0.628522771700
H  -1.151102782700  0.129873374500  1.620567689400
H  -1.463600897200  1.156635133100 -1.237165534300
H  -1.148305840500  2.158375955300  0.179489575800
H   0.772454559600  2.985326617500 -1.333946347600
H   2.075584442100  1.874781849200 -1.759270064200
H   0.502011787900  1.732699420800 -2.543044673500
H   0.909588571900  0.871441133300  1.663883790100
H   1.176321145700  2.466024633200  0.954683369000
H   0.487257832900 -0.500634134700 -2.004285460000
H   1.911225245100 -0.607683746400 -0.987976068100
O  -2.576833131993  1.797344480532 -1.570592293966
C  -1.828264598261  2.527625317814 -2.511677895561
C  -0.317534455132  2.408890466270 -2.315241280005
C   0.274149683533  1.036579815533 -2.678972666050
C   0.185839633989 -0.022314089694 -1.578180172914
O  -1.112261620890 -0.568863642650 -1.371321107427
C  -1.465016613344 -1.555062155652 -2.334113152628
C  -2.943967596203 -1.906107453229 -2.270734831106
C  -3.347182456028 -2.435980161027 -0.901765710540
C  -4.818387446159 -2.809654725477 -0.815609603296
O  -5.196102738250 -3.251053985891  0.481809765311
C  -4.700261715209 -4.554085035751  0.796794100929
C  -4.039016746623 -4.617822624542  2.165914097361
C  -3.538746368333 -6.021541890513  2.499630192977
C  -3.152044003635 -6.198747937126  3.961283465269
O  -1.979007174852 -5.488692919417  4.342049024476
C  -1.671059279044 -5.723247059143  5.715454873706
C  -0.389616903531 -5.048535786555  6.185812093457
C  -0.207435542398 -5.167985820198  7.694718140935
C   0.961923888112 -4.353398272397  8.223920222019
O   2.210608466875 -4.764388586005  7.678668936438
C   3.314261997335 -4.286317877850  8.442387728736
C   4.643097420012 -4.463542395278  7.721754043595
C   4.758217249977 -3.564587118478  6.495690149410
C   3.740099724240 -3.896586412065  5.418289055160
O   3.812583240226 -2.999817586221  4.316350597656
C   2.787087097951 -3.244434583884  3.360548580345
C   2.728444714324 -2.160384300904  2.296506525975
C   1.596677188497 -2.361210800174  1.294399499458
C   0.245596415763 -2.452785258849  1.988416912280
O   0.073522801964 -1.440970920643  2.967913578531
C  -0.239284583429 -0.162021108486  2.437037242652
C  -1.606118938899 -0.142086206655  1.769869397664
C  -2.219292579919  1.243359009103  1.621263556133
C  -3.687126869401  1.117900914130  1.242335248265
O  -4.355941924089  0.256487903208  2.156256260452
C  -5.706296333906 -0.010729888524  1.798369274609
C  -6.351561539592 -0.987646038155  2.768799715274
C  -7.807979516777 -1.304284320367  2.444556739231
C  -7.975431091115 -2.103128425029  1.161854550410
O  -9.324922194581 -2.512450577772  0.973377681681
C  -9.518963921910 -3.244364501164 -0.230934736752
C  -10.870715156556 -3.939402541826 -0.232454618452
C  -12.022974857408 -2.957531526570 -0.078808674673
C  -13.331560393696 -3.681792357111  0.199700071720
O  -13.229410177704 -4.440901400563  1.398863771208
C  -14.289221986805 -5.370978375562  1.592346347030
C  -13.951992254327 -6.317356790721  2.734434261426
C  -12.617954756933 -7.006676123139  2.477245082011
C  -12.096050347580 -7.795878814811  3.665861125071
O  -10.786572662964 -8.292078009363  3.423513152237
C  -10.240786008823 -9.017202860652  4.515350255451
C  -10.152323778710 -8.212148836114  5.810455734379
C  -9.136752655597 -8.775094818885  6.800846562792
C  -7.713895167277 -8.477179243591  6.354551878851
O  -7.444910348104 -7.075393259520  6.380491307197
C  -6.475685352083 -6.665690091853  5.420657961697
C  -7.109994770887 -6.096324994041  4.160490044816
C  -7.991914069501 -4.882343455720  4.437567148817
C  -7.283721314546 -3.823092372825  5.272208207368
O  -6.030636921937 -3.442681902448  4.710709975394
C  -5.150769789000 -2.869184369247  5.676193929471
C  -3.801019287003 -2.498611576786  5.077746325003
C  -2.758187239065 -2.137622067718  6.127981230329
C  -1.426224894003 -1.718813628491  5.512165610993
O  -0.330963763639 -1.919860214990  6.402051812723
C   0.816805065346 -1.163452603234  6.038868661619
C   0.770306138467  0.226526981402  6.647183262372
C   0.624002588646  0.130821355001  8.158107762211
C   0.516976468915  1.477219225751  8.852120654955
O   0.362080740342  1.328451361351  10.260292320019
C   0.430084325094  2.556322907037  10.970292186936
C   1.794772396254  3.225620952784  10.869972461184
C   2.918333640585  2.238549064217  11.164480600711
C   4.300402733157  2.775160938357  10.821060848338
O   5.362423753320  1.892069918837  11.158384938155
C   5.236771167598  0.608058030824  10.559197115946
C   6.477764821992 -0.248992728114  10.750701584426
C   6.310369091474 -1.673936039701  10.227743898717
C   5.194451100668 -2.422766300134  10.945193733554
O   3.909871419744 -1.898242609679  10.624033702412
C   2.893889030578 -2.342017404012  11.518433535253
C   1.528652059158 -1.781430554179  11.152729817650
C   0.419841686365 -2.266416827515  12.077386916375
C  -0.944388182266 -1.711924095339  11.698721750887
O  -1.989756443095 -2.210558401581  12.532882725076
C  -3.207345992467 -1.507657859004  12.327748734889
C  -4.416008032293 -2.154583426649  12.991155822765
C  -4.264437969352 -2.321379675149  14.498744171226
C  -3.353444920381 -3.482952623043  14.857452951439
O  -3.897764008749 -4.734873317318  14.443795716863
C  -2.985066166837 -5.824001961159  14.602447582697
C  -2.413563983584 -6.301546726429  13.273054796561
C  -1.855342929757 -5.152187425202  12.454257003449
C  -1.255131491406 -5.588197744382  11.126506893211
O  -2.078043693760 -6.467910660784  10.378470548651
C  -3.340525191856 -5.920714600129  10.012553638155
C  -4.146534642049 -6.924184506545  9.199353302978
C  -5.591750682885 -6.503212482605  8.948736860876
C  -6.422455521361 -6.402504526604  10.224421578528
O  -7.826447544274 -6.379258244148  9.997978000266
C  -8.213978653015 -5.412724416232  9.031565650615
C  -9.710880239551 -5.138547026140  9.029623234205
C  -10.126777904130 -4.208207099104  7.892111674324
C  -9.554501510872 -2.804375735202  8.030120324676
O  -9.715410330029 -2.028880518391  6.847653384873
C  -9.409664099338 -0.652330399051  7.066706315950
C  -8.950909793870  0.047388538981  5.798237860159
C  -8.763818977985  1.547645658193  5.980292444681
C  -8.154673854301  2.186601068412  4.743018005626
O  -6.885102470107  1.637674804970  4.419334936278
C  -5.829938180431  2.167809094276  5.216240228987
C  -4.506608075042  1.469412347558  4.944451985207
C  -3.315606909251  2.105056376102  5.651345680957
C  -3.398202785566  1.950545933904  7.161443380721
O  -3.517689349736  0.585466742677  7.538333423191
C  -3.314165975851  0.364493981675  8.925088454918
C  -4.375083175786  1.010320690286  9.800536693594
C  -5.791726746607  0.596550112145  9.413795312864
C  -6.034539487331 -0.908997298001  9.484144610950
O  -7.420239382094 -1.229380065175  9.537636795676
C  -7.936803153426 -1.188982578831  10.865385624355
C  -7.779724288965 -2.520907797868  11.584395475263
C  -8.123678908129 -2.460661897579  13.067115001254
C  -8.049513224575 -3.844863169413  13.690266676230
O  -8.983399397466 -4.716423102586  13.061261697012
C  -8.663698985190 -6.095215487685  13.197162257071
C  -9.654410991447 -6.945969615452  12.419051662136
C  -11.076735424640 -6.739706855173  12.919523920600
C  -12.116448725396 -7.247106807582  11.931822115680
O  -12.125584500552 -6.460259397071  10.747032189054
C  -13.133836708713 -6.851032979513  9.820745374377
C  -12.713083593959 -8.025801655428  8.952203278695
C  -13.751124977428 -8.414992714071  7.902716837313
C  -14.136936230479 -7.267964483388  6.973466983443
O  -13.030211769904 -6.649571712102  6.355100670952
H  -2.141360229450  0.918339302518 -1.460987742985
H  -2.158974652225  3.570956431153 -2.429306343777
H  -2.115686031642  2.192546114804 -3.516325010983
H   0.174636937069  3.185879981577 -2.916380108182
H  -0.070140701699  2.649698933530 -1.275628707681
H  -0.200486295544  0.667013486718 -3.593239889079
H   1.332698821911  1.167353690540 -2.944568439914
H   0.506500836264  0.409230169319 -0.624120278272
H   0.863035008127 -0.861834682639 -1.776606432209
H  -1.191743450732 -1.189972835782 -3.329817918917
H  -0.850216605975 -2.440186462987 -2.136395118677
H  -3.196767108170 -2.642971904194 -3.043062902808
H  -3.538061778937 -1.015216808867 -2.504638298638
H  -3.130852863217 -1.686657854710 -0.134796539803
H  -2.721775608552 -3.296051794922 -0.640296366032
H  -5.445997307937 -1.945602269918 -1.059465290743
H  -5.077291492601 -3.591633346404 -1.537973567952
H  -5.552511579755 -5.241933095554  0.747761357176
H  -4.001526890689 -4.882529174398  0.020020190471
H  -4.760805440296 -4.283244022406  2.918707104839
H  -3.215245310304 -3.897119840263  2.216032003141
H  -2.681821363541 -6.270933725012  1.863763245652
H  -4.318395664543 -6.747751004162  2.236106678400
H  -2.980466921238 -7.257782985617  4.189305250896
H  -3.965722501756 -5.859797359440  4.610067918827
H  -1.607283598713 -6.805568693084  5.874288573167
H  -2.523297297669 -5.370293184644  6.306995999909
H  -0.410065437780 -3.993993102124  5.898970545741
H   0.475670150005 -5.468084526379  5.660864461982
H  -0.070365746868 -6.220995789849  7.965872514031
H  -1.133072175281 -4.854301955787  8.191427709848
H   1.028804611230 -4.430396073609  9.315383284743
H   0.830771148052 -3.293179532165  7.981459593968
H   3.304676889815 -4.825747842506  9.396825081540
H   3.143052691165 -3.226910790238  8.665390280449
H   5.475179612777 -4.267743895442  8.410222403455
H   4.745102550301 -5.511549175823  7.418807314715
H   5.764483927758 -3.622092158407  6.063073385549
H   4.630279212923 -2.516975536183  6.791646885585
H   3.884982150512 -4.915597938168  5.042890052751
H   2.725034159904 -3.847415258014  5.826622820824
H   1.836068296301 -3.300734010019  3.901212372924
H   2.963018148740 -4.228028650094  2.911382278959
H   3.697661513864 -2.099957271422  1.787105371192
H   2.603437884678 -1.194806441015  2.799822630940
H   1.587618120162 -1.533015143839  0.576423114608
H   1.775995050027 -3.264705225558  0.698461716272
H  -0.587388586062 -2.423610226704  1.278209809015
H   0.149747790387 -3.407853651742  2.518433303044
H   0.557062883261  0.156457554964  1.756952607693
H  -0.220660913306  0.536413093851  3.281286082809
H  -1.554498995938 -0.629320237524  0.791946332452
H  -2.287277160181 -0.761241028501  2.366439009344
H  -2.137906244766  1.779334589070  2.573609387179
H  -1.664276474187  1.841455947053  0.888681026995
H  -3.792876694865  0.688367743159  0.240458833025
H  -4.195593365401  2.088869727705  1.238794520675
H  -5.715448908691 -0.408161535925  0.778781165731
H  -6.249030422301  0.941062178427  1.786827920626
H  -5.767608888362 -1.914869941110  2.783187819987
H  -6.268922120950 -0.574479778738  3.780457516334
H  -8.389729222585 -0.378319500353  2.376859533523
H  -8.265428199840 -1.872079531273  3.263068310620
H  -7.667566374835 -1.520705681407  0.287280912469
H  -7.351291661891 -3.003665381138  1.189167507814
H  -8.701020471908 -3.967673730446 -0.332342198714
H  -9.438728891984 -2.539817248830 -1.065960956323
H  -11.004151640501 -4.544711724552 -1.137429684603
H  -10.901565021991 -4.644822557276  0.606058857642
H  -12.101756880935 -2.316620060408 -0.965301158105
H  -11.802322585919 -2.287270685287  0.760394346515
H  -14.171222927933 -2.985949226364  0.309719881477
H  -13.572647382388 -4.363418313236 -0.623056231057
H  -14.427247399851 -5.931344850952  0.661325404523
H  -15.210784317971 -4.808354344292  1.780447087488
H  -14.746272038706 -7.057308734519  2.890079887715
H  -13.885569969271 -5.744336145269  3.666734249728
H  -12.686043989878 -7.658698409741  1.599270177194
H  -11.871421025392 -6.249353488010  2.210756205396
H  -12.753711965699 -8.638229701359  3.905844780131
H  -12.055202407939 -7.150110230339  4.547812226045
H  -9.245953576115 -9.338731367077  4.190569191520
H  -10.827134563025 -9.932815948827  4.652418998871
H  -9.873749958930 -7.181027032421  5.569094181940
H  -11.146421520671 -8.149798939718  6.266853219107
H  -9.285809979787 -8.333206597709  7.793676470422
H  -9.293011499785 -9.853908703767  6.921557835384
H  -6.976157375211 -8.968206086642  7.000009948261
H  -7.541932518872 -8.848255256613  5.339293990385
H  -5.813369601629 -7.511732878584  5.200814258962
H  -5.848952115586 -5.910828081956  5.906565500385
H  -6.324717665051 -5.815967822202  3.449932583601
H  -7.695306637582 -6.878420574736  3.661727324538
H  -8.909187392022 -5.200326921868  4.945449115498
H  -8.319357107054 -4.438318804632  3.489211621668
H  -7.892401870263 -2.917962191931  5.382808454362
H  -7.104225457956 -4.198212407493  6.285213580557
H  -5.015403057920 -3.597654667339  6.483092580862
H  -5.641870401385 -1.993132516942  6.114258077785
H  -3.429719099880 -3.343447288667  4.489088602719
H  -3.920310858738 -1.679819422880  4.360115927061
H  -2.591272400961 -2.994823340761  6.789525824382
H  -3.132403546473 -1.343841722221  6.781737795687
H  -1.454110205603 -0.670187511927  5.198110217963
H  -1.214164218841 -2.307345847785  4.611709456148
H   1.691419813848 -1.710926059042  6.407424677415
H   0.896302910777 -1.142879956971  4.946086274488
H  -0.073972836252  0.788391217877  6.233371862252
H   1.668724454039  0.798814757069  6.385462597332
H  -0.255462682980 -0.475721219259  8.402503601328
H   1.475709262470 -0.419413979812  8.572764658259
H   1.413631070358  2.069520386553  8.648195073781
H  -0.335667260641  2.049319317522  8.473024283477
H   0.201517640058  2.315337419518  12.014793826652
H  -0.376238870408  3.207456671556  10.613147005137
H   1.858128334340  4.087240168198  11.546191709994
H   1.932520799059  3.643674329907  9.866535061381
H   2.889576388762  1.934917246415  12.216950986563
H   2.732179422059  1.321019883904  10.596743237889
H   4.378511429813  3.003763176427  9.752314123007
H   4.488970071596  3.714049885310  11.353302303483
H   5.011480353906  0.735149942158  9.494549537534
H   4.374341484794  0.114808535762  11.017665536740
H   6.722882977338 -0.274710831832  11.818612764155
H   7.330989333751  0.245312550477  10.270647384645
H   7.255746751995 -2.223939586018  10.322580758164
H   6.084589247572 -1.646316598012  9.155940377875
H   5.333895649573 -2.357783890720  12.029848634476
H   5.190022549454 -3.487900850253  10.687295272318
H   2.879767242224 -3.437217163300  11.504899174566
H   3.173236645475 -2.037144351958  12.532906066389
H   1.293370065027 -2.055272572790  10.119386731656
H   1.567639587065 -0.686734667434  11.157400677140
H   0.388361652944 -3.360358734181  12.065653303293
H   0.646529696072 -1.996487855803  13.114935527817
H  -0.941528701444 -0.617646339719  11.762564217494
H  -1.190573800703 -1.968963788547  10.662245292172
H  -3.359533876182 -1.428211825932  11.246191800186
H  -3.061276709583 -0.491076621306  12.709935263703
H  -4.596014995492 -3.138415421637  12.543694665307
H  -5.306929622387 -1.553621079219  12.769678211435
H  -5.244317886117 -2.500397921896  14.958799678873
H  -3.892204792604 -1.387133696991  14.936722911740
H  -2.375668598411 -3.354291406169  14.383252650975
H  -3.184953931353 -3.537747853685  15.939487964908
H  -3.525370998012 -6.629270478072  15.114755541142
H  -2.182585214865 -5.510108233489  15.279791453663
H  -1.638005314518 -7.060394573167  13.433878278144
H  -3.197916248188 -6.806125415725  12.698006984809
H  -2.651831647339 -4.421710803978  12.276085218877
H  -1.106477221738 -4.615440004939  13.047938842796
H  -1.016656804601 -4.725412969603  10.495241198078
H  -0.314432586252 -6.125748556024  11.293080540211
H  -3.877997274733 -5.649929467968  10.925604575427
H  -3.178592413142 -4.993825323090  9.451832812828
H  -4.133905588170 -7.885258582767  9.726133364968
H  -3.627196443104 -7.112572507409  8.251755538719
H  -5.610838571815 -5.547498901160  8.413223728574
H  -6.077183181314 -7.223222242283  8.280459660577
H  -6.158877976470 -5.511543406933  10.805262086021
H  -6.229206528595 -7.264574488740  10.872724365740
H  -7.645087089962 -4.496821578706  9.220252398867
H  -7.904720178674 -5.790199759036  8.051446398892
H  -10.011487758386 -4.716423641569  9.994862590482
H  -10.241505951196 -6.094418103416  8.958035216477
H  -9.797151996804 -4.630912192930  6.937692258527
H  -11.218800901828 -4.143898100504  7.816197153782
H  -10.028208189490 -2.274218888485  8.863899198636
H  -8.480315540732 -2.833666699628  8.240483611321
H  -10.308572471490 -0.176747738602  7.474486999070
H  -8.633798354105 -0.583213369274  7.837839186554
H  -9.670067759522 -0.148383521887  4.994924925787
H  -8.011096904231 -0.401513977716  5.458640527770
H  -8.122993612330  1.731296034695  6.849115624051
H  -9.725300718645  2.016439431654  6.224172317883
H  -8.048905932951  3.272645960647  4.848787251411
H  -8.799831882380  2.017239771973  3.873382893132
H  -5.750494898748  3.237901392433  4.995456484627
H  -6.105571820601  2.076861022640  6.270522599548
H  -4.343514659102  1.453029617051  3.861849818494
H  -4.590628064977  0.419466638907  5.243578205938
H  -2.387299994778  1.637710387442  5.301147956348
H  -3.239222916461  3.164245358546  5.376714141480
H  -4.266538974195  2.486999038659  7.556400463833
H  -2.512172188480  2.370426572317  7.650596559074
H  -2.307329802957  0.711932136139  9.183885890621
H  -3.308821047356 -0.721662856897  9.066334314927
H  -4.194628910161  0.760296033142  10.852954975777
H  -4.277411063170  2.101279496235  9.747442792196
H  -6.516842442720  1.105890990121  10.059531791807
H  -6.021735425195  0.944453473965  8.400823234009
H  -5.546498464050 -1.345427872225  10.360670055864
H  -5.609153251880 -1.417039497067  8.611090692140
H  -8.993332985970 -0.904617247406  10.803139294001
H  -7.435130795548 -0.386831067755  11.417103154155
H  -8.409529228377 -3.273589849742  11.098053665887
H  -6.758389995114 -2.892866767234  11.454701355249
H  -9.138598895423 -2.065885491311  13.189215428852
H  -7.463836051894 -1.756816890037  13.587776335793
H  -7.043880027888 -4.263594056898  13.570685733682
H  -8.272503532401 -3.828053426918  14.763359528916
H  -7.639757180559 -6.247221612175  12.837470928061
H  -8.682138877350 -6.343781551988  14.263729169463
H  -9.382974666016 -8.008218548352  12.452384828788
H  -9.604100617973 -6.659415347177  11.362737683714
H  -11.241594950453 -5.666857722219  13.075308727747
H  -11.201149347055 -7.207655337516  13.903978804602
H  -13.122437620050 -7.211327437546  12.366144469024
H  -11.913645693682 -8.287460140420  11.658424896350
H  -13.343350768438 -5.969695881424  9.205131104258
H  -14.057683273940 -7.069394457113  10.367337630503
H  -11.765611055764 -7.776843449977  8.463969615124
H  -12.480766101901 -8.886087970279  9.590715449586
H  -14.647946290662 -8.805228923924  8.399837112101
H  -13.364757865154 -9.245522293035  7.298947290650
H  -14.792789558532 -7.623721438746  6.168700794981
H  -14.711750827204 -6.500367694879  7.507086380552
H  -12.477455866074 -6.192292242974  7.028958840600
