35
pair_id=pair_853f476a9d9d031b71ca start=2 nco_site=1 oh_site=2 attack_angle_deg=105.000000
C  -2.446703299700 -1.853063307200  0.000123365600
C  -1.098027931500 -1.205932880900 -0.000066001300
C  -0.977301580500  0.191279927900 -0.000010540500
C   0.267967642200  0.804165982100 -0.000123504100
C   1.417991736400  0.026293504500 -0.000147019000
C   1.317979512900 -1.362983689200 -0.000021543200
C   0.069352399300 -1.955586166900 -0.000065144800
N   2.632038095300  0.666782419400 -0.000316067500
C   3.817430935400  0.550232190400  0.000086689700
O   4.971044958500  0.643019233500  0.000273142600
N  -2.082630512100  1.005769681200  0.000064390200
C  -3.274049916600  1.044002541200  0.000022428200
O  -4.404742005300  1.293651270200  0.000058905200
H  -3.016326284800 -1.552982801300  0.880538512500
H  -2.353428997400 -2.935486979200 -0.000257502200
H  -3.016936278500 -1.552395575500 -0.879688210700
H   0.338560408400  1.879666146500 -0.000123025800
H   2.213426184600 -1.965662440300  0.000120232800
H  -0.000809997700 -3.033428387600  0.000035023700
O   3.668223199711  3.288961505738 -2.678355631074
C   2.408579751350  3.699726557535 -3.169798414513
C   1.839942899855  4.932580301810 -2.463115704498
C   1.339759927553  4.684756456663 -1.036775950799
C   2.442041361664  4.413096920724 -0.002809302428
O   2.911778941666  3.093810541836 -0.001820232596
H   4.293028402480  4.017237818535 -2.772977897531
H   2.484125739793  3.903480596999 -4.247039493511
H   1.748057815210  2.841537410028 -3.027199002400
H   1.002509888763  5.295312365650 -3.062681020495
H   2.601112549382  5.719389788967 -2.449432197548
H   0.788202007736  5.570217988887 -0.714487020732
H   0.650329971874  3.838430419926 -1.032650811745
H   2.037757458855  4.577615439694  1.000022614826
H   3.270624513479  5.124358025716 -0.154468549906
H   3.264305657571  2.899533964882 -0.887253534728
