352
pair_id=pair_c331ce60e3e4002a477c start=1 nco_site=1 oh_site=1 attack_angle_deg=105.000000
O  -0.892359844500  1.922011143500  1.551618387200
C  -1.404048441200  1.265858264700  0.741439727900
N  -2.097646827800  0.724591544800 -0.055434653500
C  -2.188583977800 -0.380267317600 -0.939051686600
C  -1.948006681800 -1.723900442000 -0.237227573400
C  -0.600190088900 -1.812992178400  0.478380570900
C   0.590144176500 -1.814376315600 -0.479165993500
C   1.938255299900 -1.732525388000  0.236759994800
C   2.184943254300 -0.390931150000  0.940312561300
N   2.100561577500  0.715338087100  0.057787667700
C   1.411701532000  1.258791172400 -0.741747682600
O   0.904946916700  1.916913100500 -1.553406737200
H  -1.481714308000 -0.239304900100 -1.763952380200
H  -3.200357203700 -0.362292705500 -1.353096596100
H  -2.021952472600 -2.511158111200 -0.989744811800
H  -2.743023821800 -1.878381459700  0.495345010200
H  -0.520339529300 -0.972662132800  1.170725239600
H  -0.579098842200 -2.728618728900  1.073920219300
H   0.513845165600 -0.972072399900 -1.169506146300
H   0.565199503500 -2.728466370800 -1.076911659400
H   2.008388233900 -2.521130983500  0.988226084900
H   2.732711129400 -1.889708449300 -0.495850937800
H   1.477836651300 -0.247147674100  1.764520080100
H   3.196296960900 -0.378477551100  1.355590495500
O   0.547805746059  0.703005069592 -1.037172515518
C   1.570195558033  0.408180089288 -1.968817434996
C   2.661757295635 -0.470944061692 -1.375134029142
C   3.697718130191 -0.941742979887 -2.384401414470
C   4.748163336929 -1.817696463429 -1.719847177578
O   4.188163667557 -2.943571943592 -1.056384000082
C   3.742023028577 -3.973908454331 -1.940216354185
C   2.262355687336 -4.298857349230 -1.782365987608
C   1.911969986345 -4.804457616457 -0.383823864820
C   2.045309757083 -3.737900441959  0.691490811026
O   1.731148214295 -4.230387391568  1.987264226970
C   1.429733311090 -3.218854391439  2.942097647561
C   2.604867413171 -2.297785504910  3.287074023794
C   2.766127801431 -1.086361772077  2.365045224828
C   1.647332183926 -0.062362384570  2.501416709209
O   1.817738171747  1.042958981083  1.613608497201
C   1.079368136770  2.191376744608  2.023739977494
C   1.236340860701  3.355461748652  1.058572368056
C   0.486440047715  4.604139382624  1.511779069710
C   0.791826494762  5.816712990005  0.643863963592
O   0.257473521732  7.020871113372  1.184216710555
C   0.350512857928  8.110556250548  0.271300065330
C  -0.045197458772  9.431497826214  0.912802037563
C  -0.074839100966  10.593630661203 -0.072964292829
C  -0.501533137585  11.892726853071  0.593992095551
O   0.416273715488  12.292196084465  1.604326384429
C  -0.103799796705  13.284859932708  2.479616867731
C  -1.075300547264  12.706793496330  3.498324432474
C  -0.453829213389  11.523102701308  4.224617872956
C  -1.414796947204  10.785579840064  5.142189574493
O  -0.841041097803  9.582260781262  5.645973029156
C  -1.756982744166  8.835811174569  6.441611815146
C  -1.312522401006  7.393496370811  6.629336361797
C  -2.273454031757  6.588033848077  7.499588614585
C  -2.131558405683  6.944673239341  8.970810486260
O  -0.835198024917  6.620072836517  9.456175369465
C  -0.658769139771  6.957463210216  10.829539348528
C   0.743502256399  6.616210567740  11.306001940729
C   0.978671010002  6.872008151688  12.794295514704
C   0.239455494779  5.906099645192  13.707125624175
O   0.427140008824  6.205951478796  15.088907656218
C  -0.105784900447  5.190805536045  15.936821401264
C  -0.396274437775  5.701097638834  17.341058705042
C   0.852244216994  6.227943107919  18.037103509071
C   1.790223626297  5.118243021548  18.493531109062
O   2.154634050773  4.240546885657  17.434541222592
C   3.161593412431  3.294181212950  17.797305718280
C   4.246719688347  3.182324691669  16.736699867716
C   4.973178044344  4.506545529978  16.511053584175
C   4.114324898581  5.556471099743  15.822498400042
O   4.767004740175  6.818436646769  15.745852242199
C   4.015643581114  7.765294694222  14.995387595945
C   4.687072880769  9.128908962879  14.955104435335
C   3.909320249043  10.166580224877  14.145717901698
C   3.688427415713  9.744316473964  12.698828575181
O   3.152728929119  10.779512221858  11.880062379592
C   4.138130241106  11.700058204181  11.415675627184
C   4.610589371408  11.398443571695  9.998921518010
C   5.206139570321  10.004645573651  9.852558701275
C   5.714430044158  9.704624242117  8.449726850707
O   6.225054568665  8.376785270345  8.318813864796
C   5.350833648905  7.502802376522  7.620927008951
C   4.087588561392  7.175421140197  8.399142713615
C   4.393938010047  6.495886076351  9.735376717694
C   4.702013460730  5.011836142776  9.592636754078
O   4.916767111298  4.343599345818  10.830267829102
C   3.823015867470  4.465577181449  11.732900612822
C   3.678676300113  3.254478319996  12.639046731795
C   3.491735081899  1.965053860192  11.851970252438
C   2.281565960823  2.022561747751  10.929402914203
O   1.107623790140  2.439173243463  11.615042153881
C   0.027695750675  2.706328945671  10.725147030543
C  -1.224291080803  3.148585623805  11.463451212611
C  -2.356721772133  3.589630517872  10.541914894312
C  -2.945279590912  2.447191824108  9.728378817791
O  -2.010336848308  1.815378673507  8.868534925325
C  -1.632796923803  2.623812427431  7.759514316434
C  -0.801200293462  1.846727869288  6.750234670444
C  -0.376569706156  2.682140061370  5.543051920933
C   0.619742437250  3.778577622908  5.890383389784
O   1.010768704367  4.540725425464  4.751414191552
C   1.901477300390  5.595650545099  5.101924682564
C   2.238320873958  6.502464203811  3.925606892598
C   3.181472049036  7.642264908248  4.303855564944
C   2.543066477123  8.657386049052  5.240573540058
O   3.477400499563  9.620349913521  5.718264458085
C   2.854050444557  10.806728926003  6.189191471615
C   1.812547268092  10.559352638221  7.270542437977
C   1.196931248844  11.839755974660  7.822313709899
C   0.182799204652  11.560353679698  8.918568936415
O  -0.411599623415  12.753747900149  9.411321077185
C  -1.486353574002  12.513040158794  10.304764977010
C  -1.058390077626  11.786645826246  11.569559407618
C   0.102474276694  12.485787733500  12.256638781551
C   0.540154603179  11.755814967461  13.515097913324
O  -0.513919844602  11.674209152842  14.466820049751
C  -0.107219531764  11.116942236756  15.708873108535
C   0.100811136909  9.611081431702  15.660751535541
C  -1.188332601679  8.840653085399  15.390763798113
C  -1.869514156666  9.201307745248  14.079816749933
O  -2.905588750129  8.279936855930  13.756658743598
C  -3.611511726859  8.627758188805  12.568966762825
C  -4.463785098867  7.470915144965  12.069499490951
C  -5.202065283760  7.774191848650  10.772446702319
C  -5.965014461467  6.556999331599  10.274192932232
O  -6.977918203525  6.166453835844  11.194809291751
C  -7.360585240926  4.801080948602  11.066667945742
C  -6.449340788709  3.861494825373  11.843275486981
C  -6.899632286120  2.407921035902  11.780708271580
C  -6.011042434767  1.502034341424  12.618854995150
O  -4.667145895392  1.500512225081  12.157777072392
C  -3.795999244137  0.746294585221  12.994849381669
C  -3.380107957377  1.496958253771  14.251753527634
C  -2.297457833901  0.769362549124  15.043370240392
C  -1.875741794058  1.524184357993  16.293843708098
O  -0.867433017350  0.831718112162  17.021308819371
C  -0.321034451554  1.599991230024  18.085632375998
C  -1.234087803057  1.692830836551  19.302306592552
C  -0.733793311784  2.677950155989  20.358142943066
C   0.640216096135  2.338196842529  20.917366092188
O   1.125862988096  3.364720520542  21.777000880415
C   2.437234239151  3.102932440736  22.257461612402
C   2.996273698460  4.255657241545  23.080902041264
C   3.090781196846  5.551596925623  22.282334134926
C   1.726945904503  6.200137189670  22.091292501065
O   1.180584816990  6.625691972873  23.324203549041
H   0.947330507826  0.823629726274 -0.144067270167
H   1.095632809127 -0.083849716311 -2.825668254915
H   1.984683255515  1.352121213066 -2.343528912854
H   3.155919320182  0.066050622056 -0.557489344356
H   2.195743669263 -1.341581191667 -0.905549773536
H   4.167416942059 -0.076852910234 -2.869382042902
H   3.200598169622 -1.497161978646 -3.187466797790
H   5.503364115141 -2.172704310155 -2.430761404157
H   5.286131529727 -1.245786319376 -0.955119436298
H   4.350321611491 -4.859228136711 -1.720835507777
H   3.976686072174 -3.687997386258 -2.972450618287
H   1.966342241935 -5.042018726421 -2.534502789710
H   1.669751321107 -3.404651130547 -2.003531866975
H   0.887603842302 -5.196215019426 -0.360612439839
H   2.551901450694 -5.654875090627 -0.123379579481
H   1.379298323625 -2.896746781690  0.473004918854
H   3.073208155909 -3.362215707505  0.722394368308
H   0.563482822451 -2.654574613070  2.582975985602
H   1.090342958230 -3.759437406173  3.834775172778
H   3.520872552378 -2.900872470837  3.287373225452
H   2.499074926642 -1.932085205054  4.316581847498
H   2.835610159503 -1.400923212362  1.322081245891
H   3.719625092932 -0.581930628544  2.565126754356
H   0.669526401607 -0.506011891421  2.287570407647
H   1.606961224730  0.315717350665  3.528892321325
H   1.436938510568  2.480026484776  3.018192472850
H   0.026057597183  1.907268435716  2.123755819823
H   0.901914800819  3.060506092362  0.057900490950
H   2.303302321820  3.580732480672  0.949119764756
H   0.740760148137  4.828874560384  2.552068136631
H  -0.593702180503  4.419737578463  1.524743092781
H   1.874102134540  5.954099554932  0.542135564699
H   0.391149404019  5.677399943770 -0.366397260064
H   1.376692311981  8.158719178250 -0.109671074506
H  -0.299695522445  7.886915484734 -0.581668908850
H   0.646595624851  9.655519322777  1.731963672917
H  -1.026453080952  9.318845334418  1.387431097375
H   0.919627786003  10.724143078351 -0.514181430689
H  -0.743860134454  10.353891692189 -0.908586917142
H  -1.491867826562  11.774560138472  1.044400854312
H  -0.572625092611  12.713112564355 -0.130043332996
H  -0.556180157820  14.082288802857  1.878644860496
H   0.760789650045  13.725116989811  2.989697651699
H  -1.388149242153  13.472500883632  4.218961232581
H  -1.995679790427  12.384571884148  2.999601352346
H  -0.060552595250  10.814485624979  3.488875502024
H   0.421176548471  11.853045008805  4.791294209989
H  -1.712980306245  11.411925533335  5.990169297533
H  -2.327704997645  10.521110695756  4.597357132973
H  -2.740751886144  8.865197511991  5.960151964672
H  -1.860449890826  9.348531727417  7.402889820028
H  -1.197070322056  6.930527758179  5.641319675975
H  -0.313759250984  7.379103984130  7.079339661908
H  -2.077575403543  5.516520302852  7.380758058084
H  -3.304547331982  6.743329786446  7.159271345879
H  -2.291028763228  8.015848170057  9.130422066131
H  -2.867649636243  6.412873462316  9.582970545009
H  -0.856636055023  8.027797589335  10.948935569657
H  -1.414360764763  6.421286998731  11.411717298648
H   1.455092870106  7.190062924768  10.700956540001
H   0.944637061408  5.565471145840  11.075622450631
H   2.046886979568  6.806237935184  13.024076959025
H   0.691431608294  7.898086165411  13.042258764967
H  -0.837551471560  5.932077048811  13.510019060555
H   0.581593207274  4.879405179349  13.535332849073
H   0.628733414945  4.378008748152  15.960152293470
H  -1.015557785860  4.795436539745  15.469688575462
H  -1.150447882596  6.494691281227  17.275318295723
H  -0.854579374883  4.912517594320  17.948733049028
H   1.383543646008  6.888684088951  17.342904936395
H   0.577694220993  6.855538744703  18.895409258738
H   1.323840289413  4.509698296266  19.273957117163
H   2.708787270477  5.539165827336  18.918840723525
H   3.599325462285  3.588626328860  18.757768926985
H   2.662812919419  2.332257970720  17.961255733411
H   3.794386866788  2.851903542969  15.795158577508
H   4.962119841080  2.398314138225  17.017626745795
H   5.883428023920  4.355314211257  15.917655269818
H   5.318152458456  4.905865887400  17.471394619133
H   3.173211718781  5.705317513216  16.359851010629
H   3.850726943840  5.237952804333  14.808717212332
H   3.012504123597  7.835320955877  15.430490445459
H   3.906399259798  7.363431942292  13.983744354257
H   5.693285086587  9.010201730167  14.537096927440
H   4.842510551653  9.478154312275  15.982837060629
H   2.941484005715  10.361259369423  14.618820837243
H   4.433630011328  11.128777157893  14.167134441587
H   2.989734605244  8.904054046828  12.641370586632
H   4.626586175536  9.391739782760  12.261294832665
H   3.691048613507  12.699916592178  11.474478833618
H   4.982602179298  11.697614355629  12.112998143842
H   3.764086896676  11.498867102090  9.312159760092
H   5.342280603457  12.148368516127  9.673973978414
H   6.029069144943  9.870161638447  10.563464118040
H   4.454833546435  9.260780538112  10.132684845534
H   4.928538078991  9.857618537312  7.702823016203
H   6.527284192739  10.389678592842  8.182595806111
H   5.128112348243  7.963595526003  6.651515096658
H   5.920771737184  6.591232920256  7.411087408003
H   3.520985017208  8.098490134253  8.562664757723
H   3.423821169236  6.535187141030  7.805305317143
H   3.551067710316  6.623751987762  10.422000695087
H   5.239912623865  6.994520053121  10.221599300762
H   5.603852051370  4.858865287120  8.989990963588
H   3.890199137037  4.494333106643  9.069567909356
H   3.974763972748  5.384035644256  12.311600578351
H   2.908747597566  4.600801384796  11.147433449492
H   4.565144028832  3.177879856595  13.280394092788
H   2.823915584946  3.394518999293  13.312950814827
H   4.396840872590  1.755489938926  11.268340352441
H   3.376107095682  1.122712483821  12.545364636584
H   2.457690793511  2.725285698978  10.107988400738
H   2.077391546642  1.047028803012  10.472216925150
H  -0.166766439850  1.800107533967  10.140454384193
H   0.352950520527  3.482041238140  10.023556605470
H  -1.560452149464  2.334313730585  12.112397394074
H  -0.955048495685  3.962782687703  12.144415474311
H  -3.148951198559  4.067894476932  11.131716749909
H  -1.984716232103  4.365888732140  9.866679798836
H  -3.797149664671  2.776742838844  9.121770765474
H  -3.327245618967  1.664834558349  10.393204090809
H  -2.542799636472  3.010311906431  7.287819307543
H  -1.074644793592  3.484201535748  8.138950868309
H   0.084050428438  1.440654231158  7.252452526354
H  -1.375874342138  0.969912355358  6.427866772389
H  -1.256618275795  3.133331971166  5.071277323365
H   0.063426792602  2.036949371131  4.774762757136
H   1.523149651638  3.350652293739  6.338977579314
H   0.194992390053  4.469148661873  6.626331039341
H   1.436018866831  6.167659211635  5.910183882001
H   2.811527775788  5.145623381104  5.514050756448
H   1.311834770904  6.910896645500  3.505441896143
H   2.680829793291  5.894293888217  3.127873798167
H   3.539749101272  8.164565557150  3.408393739473
H   4.080222145162  7.231291424467  4.775424044387
H   2.114432945401  8.161564148266  6.116730240864
H   1.722136797591  9.178977519677  4.734910429875
H   2.420563200829  11.319216061147  5.324791575730
H   3.648370028237  11.462758603851  6.561711608542
H   2.264738791859  9.985341222640  8.086142406138
H   1.014823641601  9.919265640076  6.879237946157
H   1.976968380471  12.504665020470  8.208809797162
H   0.713248360812  12.406736032307  7.019808950744
H   0.663623281424  11.038032422064  9.752383859288
H  -0.614505374970  10.908526950064  8.547191049534
H  -1.902374183821  13.496242137123  10.553015069870
H  -2.268923825508  11.968097911509  9.763584067972
H  -0.775167784969  10.755129714119  11.332582082336
H  -1.901164811117  11.702195227548  12.266364960158
H  -0.191604005349  13.509395422304  12.514951470239
H   0.941510869611  12.585527690039  11.556910412616
H   0.860107981355  10.738990594098  13.266987048317
H   1.390799953495  12.261076743683  13.986962769333
H  -0.890034668773  11.365542851980  16.434352925948
H   0.797154726732  11.643129388912  16.036710325841
H   0.548093234249  9.267267117269  16.602777797015
H   0.836654742894  9.367262819557  14.888846269473
H  -1.896746320825  8.988394217104  16.213812969134
H  -0.983877830572  7.764802212471  15.376436062965
H  -2.298676865580  10.208231485060  14.127329966740
H  -1.148510438678  9.195629214711  13.256894019419
H  -2.886239659955  8.926793761953  11.804988676130
H  -4.228305924807  9.506756258328  12.785822654004
H  -5.181018879056  7.182133475350  12.846276926546
H  -3.825541971886  6.590311653236  11.937427771136
H  -5.902961732334  8.600892907966  10.933900409186
H  -4.497398717835  8.128534849291  10.011236671400
H  -6.451648436612  6.750062563093  9.310764328160
H  -5.280859586238  5.714983790547  10.124746449186
H  -8.388957517651  4.724960236053  11.437827760349
H  -7.394744673748  4.540336408393  10.003006261412
H  -5.421630885308  3.943316533713  11.476351407169
H  -6.403121966734  4.192239306459  12.887097202173
H  -6.886783277808  2.065677002167  10.739674884576
H  -7.943686323246  2.328927610793  12.108178020971
H  -6.370671247214  0.466405782335  12.601853934490
H  -6.016360535014  1.830152033915  13.663076440635
H  -4.278143886900 -0.206519274887  13.239823435496
H  -2.915214439365  0.492916879771  12.394624816683
H  -4.251514094196  1.670323346737  14.892059119438
H  -3.029348716272  2.497410690047  13.974446399906
H  -2.644345251582 -0.231269990500  15.324583195508
H  -1.417597163789  0.600561432755  14.412004749573
H  -2.735478609358  1.680765984124  16.952772593325
H  -1.490386227445  2.513687412467  16.027045130175
H  -0.068901469450  2.593203257709  17.699587645885
H   0.628598833949  1.124333078107  18.352943357783
H  -1.348576001186  0.695179303159  19.741042767340
H  -2.240640520036  1.980679322202  18.979649869694
H  -1.446210471621  2.750512272764  21.188768532306
H  -0.697978858726  3.685411118434  19.931046066222
H   1.368037397555  2.209002971331  20.110542317254
H   0.613354224215  1.398155709097  21.479237988641
H   3.080102120023  2.910074459204  21.391479997354
H   2.397650759010  2.177144458930  22.843553607113
H   2.349019147352  4.424540385165  23.949238173299
H   3.980281626398  3.980838194280  23.483278704849
H   3.740084610132  6.267862676278  22.800872338426
H   3.568940015842  5.355633864406  21.315000961468
H   1.032287564246  5.484983391143  21.633288643520
H   1.792990890680  7.067188987112  21.420659476076
H   0.270434707240  6.983637431074  23.204356796410
