35
pair_id=pair_853f476a9d9d031b71ca start=4 nco_site=2 oh_site=2 attack_angle_deg=105.000000
C  -2.446703299700 -1.853063307200  0.000123365600
C  -1.098027931500 -1.205932880900 -0.000066001300
C  -0.977301580500  0.191279927900 -0.000010540500
C   0.267967642200  0.804165982100 -0.000123504100
C   1.417991736400  0.026293504500 -0.000147019000
C   1.317979512900 -1.362983689200 -0.000021543200
C   0.069352399300 -1.955586166900 -0.000065144800
N   2.632038095300  0.666782419400 -0.000316067500
C   3.817430935400  0.550232190400  0.000086689700
O   4.971044958500  0.643019233500  0.000273142600
N  -2.082630512100  1.005769681200  0.000064390200
C  -3.274049916600  1.044002541200  0.000022428200
O  -4.404742005300  1.293651270200  0.000058905200
H  -3.016326284800 -1.552982801300  0.880538512500
H  -2.353428997400 -2.935486979200 -0.000257502200
H  -3.016936278500 -1.552395575500 -0.879688210700
H   0.338560408400  1.879666146500 -0.000123025800
H   2.213426184600 -1.965662440300  0.000120232800
H  -0.000809997700 -3.033428387600  0.000035023700
O  -0.745469240745 -1.478127343984  1.393613144567
C  -1.126531724797 -2.305803468825  2.473747011173
C  -1.643717167093 -3.681805620082  2.047350512246
C  -3.032482761081 -3.676826573088  1.401324126538
C  -3.091670367464 -3.052357600420 -0.000262696610
O  -3.153958558162 -1.653325401483 -0.000165317772
H  -0.058428430166 -1.924550302790  0.885279819919
H  -0.273834538152 -2.435423042348  3.154759141236
H  -1.907290434690 -1.753004946661  3.000949120593
H  -1.683020331616 -4.307273310385  2.941549928483
H  -0.924335499477 -4.136110702734  1.358342129874
H  -3.370996370469 -4.711844739662  1.322113334802
H  -3.733358982701 -3.141470500676  2.044569677409
H  -4.007069584838 -3.383252420163 -0.498997658804
H  -2.234578861907 -3.406778125932 -0.596268710414
H  -2.362554919855 -1.317181200157  0.454475159410
