383
pair_id=pair_1eed3bf4b6fc24a22592 start=1 nco_site=1 oh_site=1 attack_angle_deg=105.000000
O   6.071138798300  2.480874245000 -0.539966886600
C   5.281563264000  1.703290642200 -0.203729312400
N   4.583194840700  0.895553337000  0.323028101100
C   3.469566272400  0.097992287700  0.217823463600
C   3.141003666300 -0.720825069600  1.291776942100
C   2.027239290200 -1.535897111400  1.217504870200
C   1.230376574900 -1.552900220000  0.080976745700
C   0.000129982500 -2.417918638600 -0.002577497200
C  -1.230253681400 -1.553071685200 -0.084299228600
C  -2.021435998300 -1.526209840700 -1.224619472200
C  -3.134787785500 -0.710465627800 -1.297435226200
C  -3.468763238200  0.098981255200 -0.218056518800
N  -4.581846364100  0.897438299100 -0.321975352000
C  -5.282652338400  1.701065266500  0.207899688400
O  -6.073694902800  2.476057311700  0.546553031600
C  -2.680498724400  0.084975519400  0.931153113200
C  -1.572915706700 -0.735626567500  0.987803746500
C   1.567638803400 -0.726117648500 -0.985674162700
C   2.675451036000  0.094047662700 -0.927432521900
H   3.761402694000 -0.710428411900  2.174324307200
H   1.779230559000 -2.170944736200  2.055913696000
H   0.058433977900 -3.056457871800 -0.886664495400
H  -0.057740878700 -3.058561817600  0.879976911700
H  -1.769229849800 -2.154027086400 -2.067217719300
H  -3.750781892300 -0.692421148900 -2.182945547900
H  -2.943609239700  0.716629811900  1.766859046600
H  -0.960209384700 -0.742612630800  1.877475508100
H   0.950329509800 -0.725172817000 -1.872181069100
H   2.934211927200  0.733133578500 -1.758835180200
O   2.905165095092  2.765331259928 -0.921225980759
C   1.666904559421  3.318724627007 -1.295089174448
C   1.793807181232  4.607604088336 -2.106061635759
C   2.317364219443  4.418423422937 -3.539841907226
C   3.839917896137  4.347013577960 -3.672242873795
O   4.425903158352  3.126547289982 -3.232177802350
C   4.304286756448  2.072702690669 -4.180129871463
C   4.669081274362  0.723795526781 -3.578531961559
C   6.095829328303  0.701893130954 -3.048122649470
C   6.491936673499 -0.640787611312 -2.454989381692
O   7.806270014213 -0.633777510354 -1.913438003723
C   8.825167446515 -0.615478459189 -2.915673772339
C   9.893327032981  0.435572196227 -2.650863328958
C   10.988814425737  0.424860606629 -3.714751149965
C   12.217816842357  1.237318510719 -3.331559025509
O   11.999527878969  2.643306458303 -3.304656225607
C   13.200051279737  3.333522946649 -2.960510993013
C   13.066592165226  4.850294623511 -2.973085662469
C   14.310521214189  5.533066176148 -2.415663607778
C   14.144194097160  7.034257127479 -2.243123145395
O   13.887953687750  7.704564145986 -3.472128651108
C   14.117645202055  9.107473519974 -3.377491408785
C   13.574240744410  9.870070279285 -4.577359233338
C   12.050569737869  9.852508369771 -4.629551960017
C   11.479177898708  8.458663788002 -4.825226672383
O   10.056942907367  8.452209609149 -4.794853588895
C   9.527327442634  7.133404800153 -4.867645380654
C   8.027788194537  7.106231156791 -4.619788415499
C   7.441897703088  5.698352402734 -4.627355041344
C   8.131997142227  4.800523776646 -3.610924115254
O   8.285741916851  5.432961769795 -2.350298860922
C   7.100410810193  5.475151587741 -1.570170055390
C   6.656170429143  4.086876534285 -1.135326004278
C   5.724508294691  4.067051257921  0.068474926811
C   5.602641935208  2.647328864381  0.600828956743
O   6.895337501969  2.098138591984  0.828701257956
C   6.869735311928  0.728358843724  1.210792142546
C   8.276502563242  0.174717747871  1.374972003859
C   8.314840049584 -1.290255252226  1.797974343887
C   7.814510138349 -2.237815906811  0.719403240847
O   8.009379769742 -3.598262271731  1.087378658561
C   7.530883753888 -4.511469190362  0.107167828705
C   8.048907712479 -5.915351370088  0.373771639908
C   7.639213116317 -6.429091143819  1.746215433879
C   8.391827339969 -7.701249264631  2.106357800539
O   9.793587197098 -7.457294376049  2.121526845554
C   10.590214774969 -8.635956743928  2.164179887710
C   12.047338277585 -8.291879258743  1.895623406375
C   12.183084104622 -7.550238459653  0.571801116159
C   13.567286603730 -6.971973143862  0.331747237042
O   13.596977469574 -6.168645545174 -0.840200376458
C   14.864177798620 -5.582145812454 -1.097141559099
C   15.375636640755 -4.693287767262  0.034926008862
C   16.431945538209 -3.689392419368 -0.418475052296
C   15.803686277600 -2.555033512787 -1.212815180645
O   14.940079988103 -1.765384934093 -0.395093387530
C   13.870532788719 -1.162024931787 -1.116591360881
C   12.573558108058 -1.948578518208 -0.999380586891
C   12.099208486692 -2.097501706036  0.443227768502
C   12.051671290552 -0.767213939601  1.183666965775
O   11.293460848050  0.214016799290  0.481872090174
C   11.637145797295  1.545278661708  0.862460275911
C   10.849641479179  2.589122138342  0.083025934429
C   11.380195725362  4.004665954082  0.271581920299
C   10.550463997712  5.046118397097 -0.473854289929
O   11.299142129729  6.221358726221 -0.774196343426
C   10.471007785690  7.339615155607 -1.065956223321
C   10.091947395763  8.084433910818  0.201249479030
C   11.344610503382  8.503273836566  0.955481137900
C   11.063641979672  9.213152728269  2.268121362699
O   12.269151971044  9.564440042064  2.940739297610
C   12.062310075771  10.379551558061  4.084943159741
C   11.479537862509  11.745018685542  3.743954121501
C   12.245482392819  12.404438169478  2.602932321575
C   11.553062851539  13.638720210028  2.043372289354
O   12.292400054855  14.304376290078  1.027592578748
C   12.624578362813  13.461373229396 -0.068995109740
C   13.221687232684  14.230827403114 -1.236332459078
C   13.703436389505  13.326371380844 -2.368519089699
C   14.802342346512  12.373414361013 -1.915713830608
O   14.311987479818  11.386202975130 -1.013838224781
C   15.354423933446  10.705261979665 -0.321918471478
C   14.812246552597  9.647964726922  0.626783283788
C   15.910018124322  8.884829305333  1.356293244646
C   15.361383608177  7.820993019852  2.293963313190
O   16.392468588933  7.070722931321  2.935223057509
C   15.878364175672  6.254517865493  3.978381425260
C   16.878129414524  5.243829923059  4.524700865730
C   18.152311403965  5.881798528702  5.066063421608
C   19.090490401964  6.319311481249  3.954202539293
O   19.576019355362  5.210732794927  3.199208543238
C   20.312581873983  5.601722004500  2.037747367754
C   19.528071020857  5.380175134654  0.750343532930
C   18.139351197337  5.987576402375  0.825098639716
C   17.328559047653  5.807067723618 -0.448993912378
O   17.340649168328  4.485344152450 -0.962353738671
C   16.799751491086  3.508407240335 -0.079063175085
C   16.836122823965  2.126803617764 -0.717613430161
C   16.475687714549  0.991554419979  0.236310697592
C   17.468157636704  0.826963147166  1.383261998412
O   17.369648788556 -0.422165766306  2.056302597897
C   16.041056819361 -0.732933241721  2.452014343894
C   15.969585851578 -1.874191234875  3.456162474312
C   14.531183149447 -2.288514285317  3.759097900564
C   13.733970938804 -1.202034729589  4.467126164346
O   12.339072797018 -1.482134648097  4.503399471352
C   11.639920729715 -0.597824114957  5.378348865897
C   10.183290103012 -0.423797404912  4.982096105776
C   9.386603012684  0.396325671976  5.987882408994
C   7.981963262266  0.683730491484  5.483347497650
O   7.983155118922  1.401712739716  4.257622266474
C   8.209903439560  2.797495690824  4.430385807005
C   8.340530451508  3.521013022636  3.099112473901
C   8.422543544882  5.037456820291  3.225199214275
C   9.706657667296  5.485849232867  3.904232190886
O   10.853271963844  4.989815723064  3.226743627473
C   12.062800880704  5.603386991211  3.643769215450
C   12.420189448701  5.309283675138  5.091119799176
C   12.466927754808  3.815083599307  5.395809243991
C   13.468344391888  3.043062734784  4.540397905092
O   13.800253945339  1.780328766655  5.106975087598
C   14.849908060149  1.873934725425  6.066585009680
C   16.225717616075  1.752884626487  5.427704219672
C   17.373061804664  2.057758654524  6.382190825779
C   18.711571935066  1.810090201722  5.706259847138
O   18.819258808546  0.444592722377  5.317379999249
C   19.756352574108  0.217291810466  4.272422905856
C   19.738135508443 -1.244506089003  3.855812772959
C   20.097313032511 -2.157958086043  5.018834937982
C   19.706002698562 -3.604936641218  4.759716049592
O   18.292187939676 -3.754780112881  4.719538423916
C   17.874851528402 -5.105781240957  4.552475433391
C   17.892196751045 -5.552744228367  3.099408597834
C   17.379334324978 -6.975174377033  2.889441960815
C   15.968230847347 -7.198775325040  3.424996782800
O   15.028155615367 -6.267197847648  2.937095656063
H   3.505182971997  2.822532120235 -1.702895040140
H   1.108815889943  3.487581047760 -0.365186722269
H   1.105875596610  2.561274592023 -1.856979667847
H   0.810071621059  5.095777253274 -2.141622648514
H   2.443133821130  5.307706621928 -1.569202208299
H   1.860892623301  3.525712904008 -3.978527159365
H   1.958150066575  5.251799030021 -4.160018889817
H   4.299504718456  5.151031302977 -3.087760378503
H   4.158139487703  4.503557528556 -4.710024349494
H   3.280432544325  2.063899165207 -4.568770405576
H   4.965208998380  2.310878723523 -5.020945235821
H   4.536008439014 -0.074910687680 -4.318618082331
H   3.974869468188  0.491319273883 -2.762830036650
H   6.219429494005  1.473047969603 -2.282245809372
H   6.790518071629  0.983266790945 -3.846533303068
H   5.808735184944 -0.915675011440 -1.644052254568
H   6.426289142361 -1.443316494355 -3.197935786100
H   9.268338973995 -1.617896944182 -2.940677234682
H   8.373064401414 -0.460086349477 -3.901036519771
H   10.324382488611  0.254185173428 -1.660454820533
H   9.432599152503  1.427655933736 -2.587433328452
H   10.587762662371  0.797551654995 -4.664015281396
H   11.282809084987 -0.614341337716 -3.910464725795
H   13.039373796691  1.048361967222 -4.033219526970
H   12.570784736328  0.941138489096 -2.338798973829
H   13.988947873985  3.018879754123 -3.652867422726
H   13.502078896894  2.988783085353 -1.965151395475
H   12.191685191237  5.141049819213 -2.385926661541
H   12.857017923376  5.205056997929 -3.988238429665
H   15.164442687443  5.334225045997 -3.073252492687
H   14.567386200621  5.075192595080 -1.453222284225
H   15.042486999341  7.477707139421 -1.798021742784
H   13.307907403767  7.251883835944 -1.569836314441
H   15.199360686787  9.251449845315 -3.271710270032
H   13.649212961853  9.469671655929 -2.455119526883
H   13.937410020513  10.905724711594 -4.562713950281
H   13.977590557352  9.424012577223 -5.493242104695
H   11.680291094433  10.503692343425 -5.430732263990
H   11.643710229827  10.274091488075 -3.703171059173
H   11.804998591398  8.032114479059 -5.780316396984
H   11.836164173363  7.787533534709 -4.036774169503
H   10.048902338064  6.524637884553 -4.121129343311
H   9.771406705202  6.718533307470 -5.851752258061
H   7.526948570550  7.743795385562 -5.358160741722
H   7.833883269495  7.577205780832 -3.649284321723
H   6.368281709717  5.743787284782 -4.411103864783
H   7.521268380999  5.261806698819 -5.630712932364
H   7.612860908237  3.844900617076 -3.482895709242
H   9.143700614237  4.545284648872 -3.947924175999
H   6.317893429059  6.005288181690 -2.122197950937
H   7.329134213990  6.090776051180 -0.692898486970
H   6.187561275808  3.562314620724 -1.972962799717
H   7.551366692667  3.501768284655 -0.891406953352
H   6.134127676128  4.712110701262  0.853947024780
H   4.744135696887  4.486450337881 -0.187286618401
H   5.090070826154  2.005125896239 -0.123245851434
H   5.033757094948  2.606277312273  1.536786199268
H   6.317036543521  0.172693357470  0.447014992761
H   6.308706381187  0.648051073968  2.148554816818
H   8.821844767504  0.300243206604  0.432742136943
H   8.808384640310  0.794900082147  2.105357153095
H   7.728361539590 -1.434863855848  2.712062845535
H   9.337335343502 -1.583315433913  2.062985655883
H   6.748990200028 -2.085262104951  0.518727924527
H   8.350821346767 -2.063233574979 -0.220359564977
H   7.843971012172 -4.154275901399 -0.881204836299
H   6.436019926572 -4.485340545811  0.133316858116
H   7.722697489035 -6.613160529643 -0.407146818867
H   9.143762186304 -5.899279414415  0.321720363520
H   6.553905281954 -6.580580191163  1.790948096168
H   7.867967812235 -5.657972898203  2.491364191789
H   8.103900043194 -8.084146455546  3.092168535674
H   8.184337923557 -8.487620651441  1.372714155420
H   10.216135599066 -9.329771435337  1.403556760981
H   10.451211314245 -9.110052420397  3.142503017768
H   12.679215932693 -9.188149846276  1.903653280917
H   12.419358381780 -7.652312723215  2.704637335156
H   11.902547907898 -8.201676888089 -0.263385423269
H   11.456800294394 -6.729393862014  0.547460185680
H   14.319432061209 -7.762490921749  0.236748140462
H   13.856611607997 -6.344220533568  1.179533215664
H   14.742269025921 -5.003772067664 -2.018649536045
H   15.576214808490 -6.381601200496 -1.331265829049
H   14.530968220448 -4.144861709105  0.464850495936
H   15.760745845838 -5.323287701366  0.844374881495
H   16.946723222173 -3.258389692341  0.448955115949
H   17.203423648357 -4.200862634843 -1.006732802078
H   16.563763261724 -1.886637439899 -1.634134771642
H   15.226064867573 -2.947465690064 -2.055648279720
H   14.176991838492 -1.028686030571 -2.161141690998
H   13.743233008045 -0.153881761085 -0.708964751008
H   11.791453076576 -1.454453965530 -1.586155525527
H   12.704859648215 -2.937869006237 -1.454454169539
H   12.754532152565 -2.794321708623  0.977494276880
H   11.103592115129 -2.558177626953  0.459984141986
H   11.619550709022 -0.874242425917  2.185566054528
H   13.065198638385 -0.377934515812  1.326276693577
H   12.710428619242  1.678811116515  0.688357925760
H   11.471748292299  1.650300202043  1.940495989076
H   10.885721090334  2.338803429871 -0.981947271282
H   9.789429466933  2.538979318247  0.353360255441
H   12.417030698718  4.057848427505 -0.078333352522
H   11.426858340911  4.257267410464  1.335319591401
H   9.658384354167  5.317898650237  0.100039878373
H   10.194476404175  4.644992149437 -1.430165827337
H   11.039912069445  7.993790857438 -1.735966482159
H   9.596817642003  6.995457748741 -1.630104926063
H   9.476679050097  7.443935346809  0.842299192059
H   9.473628617404  8.960555119508 -0.029531782026
H   11.969259616864  7.622762761672  1.144150469213
H   11.952863206176  9.154900732461  0.318680885513
H   10.478358208308  10.117870825337  2.080174950527
H   10.469804691706  8.583027820076  2.937683741361
H   13.044752161382  10.493513209164  4.557299699413
H   11.433765283794  9.827794641644  4.793590254879
H   11.472817821319  12.398236805174  4.625393313364
H   10.425905951012  11.641140955394  3.461643873412
H   13.259598457895  12.663372800238  2.927331207143
H   12.379898943425  11.668162088997  1.803764862791
H   10.569270862937  13.385012856348  1.633048738359
H   11.377478206414  14.371872159837  2.838362423444
H   11.726869810563  12.915850518897 -0.380294159577
H   13.345826843505  12.721964724935  0.292043679942
H   14.058004218068  14.834300173996 -0.865423934653
H   12.483485469555  14.954703179183 -1.602179187055
H   14.054742948413  13.933732536777 -3.212872676661
H   12.861610327651  12.738297782267 -2.750619185225
H   15.602761233397  12.931047177128 -1.417197032740
H   15.258640404595  11.849014779052 -2.762968219125
H   16.021401076627  10.254480610700 -1.064739287314
H   15.942349669346  11.447774032132  0.228677900878
H   14.187436440657  8.947286210385  0.063927226016
H   14.136984207211  10.115900567753  1.351322960056
H   16.578782199425  8.420751142618  0.624703444223
H   16.541111793406  9.578397582597  1.923250077424
H   14.735140862373  8.281284170253  3.066931568559
H   14.724461940166  7.116670839402  1.746952100302
H   14.991987456464  5.744646549741  3.586455692314
H   15.540033988613  6.925494707377  4.775979665748
H   17.147337990064  4.532498559195  3.735977959867
H   16.392498011495  4.653579513900  5.311921260488
H   18.688465718934  5.169457597256  5.705572766333
H   17.893538543641  6.730262614028  5.711310479246
H   18.574505243164  7.004531580152  3.274718248488
H   19.960928705970  6.852734630677  4.354188043570
H   21.247387364747  5.028150535245  2.036970642218
H   20.596039266417  6.655191263478  2.143360326935
H   20.071389532771  5.788383339898 -0.110688726439
H   19.441368738309  4.305492351179  0.555336498223
H   17.601359187056  5.544018676598  1.669821491889
H   18.223136120549  7.052527622283  1.070485587282
H   16.285066471439  6.105981301534 -0.302235478164
H   17.728688808656  6.442939525004 -1.247232793723
H   17.383537966540  3.516952501911  0.845589825401
H   15.777010571298  3.795866774820  0.187623584411
H   17.841794502428  1.958466929773 -1.119617586000
H   16.175566390121  2.122529100016 -1.593279264132
H   15.466914587482  1.149032470304  0.633934331072
H   16.429180498899  0.045261497666 -0.314161794977
H   17.355278358907  1.622342629517  2.128440018605
H   18.495876137380  0.895119191838  1.009155417779
H   15.585230993219  0.176866477818  2.855258183049
H   15.485799228307 -0.999869642642  1.546919790041
H   16.485025547495 -1.588051139401  4.379572357691
H   16.539310186917 -2.723030377932  3.062126565480
H   14.022652503624 -2.546524765446  2.824712310575
H   14.504519371588 -3.203382318328  4.363017112343
H   14.091164658442 -1.067910414529  5.494294517106
H   13.845525672846 -0.236673073441  3.962528715322
H   11.725308659487 -1.003333817981  6.392632354953
H   12.149859728652  0.372409308660  5.378140016637
H   9.722621413012 -1.409206648064  4.849508280272
H   10.132122907261  0.052534926105  3.996917181062
H   9.911292218426  1.336664393111  6.187137657302
H   9.351925478585 -0.126878968068  6.951597359317
H   7.386820157879  1.242696514351  6.214941076812
H   7.448097570555 -0.254874798041  5.295771133204
H   7.370509807751  3.203073389088  5.005780701753
H   9.110438538873  2.935358779276  5.035189143596
H   7.491594971195  3.235875336304  2.469112190050
H   9.229162618515  3.149609323739  2.578234359599
H   8.375230155893  5.492821256599  2.228600438305
H   7.547899589666  5.415533722249  3.768516897743
H   9.742359878004  5.125049299374  4.936864520288
H   9.771635031210  6.578923937818  3.944062241795
H   11.984025080001  6.680326138447  3.455607292292
H   12.844168616173  5.231728174010  2.972166784862
H   13.387246053515  5.764012622675  5.337459847066
H   11.698078453967  5.802579983822  5.752757451785
H   12.706352378681  3.659130870472  6.454370106114
H   11.473597429607  3.372884986804  5.262361029071
H   14.392320704667  3.613242477680  4.405804531108
H   13.069925651762  2.862329980511  3.535469226259
H   14.695638820039  1.081085909668  6.807250447867
H   14.753262194420  2.821661918994  6.606943388239
H   16.351534373942  0.742875337567  5.023026238798
H   16.286056729220  2.408135422491  4.552888030284
H   17.292249670195  1.413989310625  7.265281951742
H   17.302311779196  3.086636913675  6.754054479010
H   18.809774759255  2.437586782899  4.813210279551
H   19.556772198832  2.041771975716  6.364663663229
H   19.500422267774  0.873730643671  3.433061082875
H   20.746806821100  0.512048047259  4.635478331434
H   20.402504900141 -1.425991493203  3.002092717176
H   18.730127078655 -1.493692282676  3.506143000582
H   19.567488786550 -1.810887927924  5.913978169653
H   21.166012729050 -2.069988970196  5.250671988795
H   20.091021912393 -4.263841011121  5.546821482432
H   20.121079753540 -3.952529758095  3.808348491869
H   16.861921392713 -5.167355223701  4.964559570587
H   18.499392432294 -5.753795907263  5.176945574436
H   17.292906963359 -4.850537816929  2.511348724141
H   18.908546818153 -5.455031047518  2.700351674085
H   18.069507109412 -7.687670181362  3.358177058066
H   17.393734115121 -7.213042850348  1.818550823535
H   15.601060830288 -8.195286153794  3.148396775486
H   15.950269013583 -7.169962629035  4.521907678171
H   15.236884664059 -5.366655953225  3.275008241693
