60
pair_id=pair_3bc7f7b5c70bdd45dac4 start=3 nco_site=2 oh_site=1 attack_angle_deg=105.000000
O   6.618264355100  0.143538449800 -1.688772552200
C   5.816657291800  0.056693374400 -0.854090093000
N   5.168305460200 -0.077203069200  0.131054582300
C   3.854011754200 -0.052937900900  0.673130753600
C   3.208913872000  1.324955326500  0.505592565300
C   1.816479531100  1.330099716500  1.127972203900
C   0.915975883400  0.265277561500  0.494741769900
C   1.575300343600 -1.106616265900  0.646848687500
C   2.969563288100 -1.121854323200  0.026592232800
C  -0.471566668400  0.318794788400  1.144508880200
C  -1.531720426600 -0.614503699000  0.548593741600
C  -2.815889084600 -0.520079738200  1.377955627300
C  -3.901240110600 -1.443307734100  0.834788234600
C  -4.215431931400 -1.131031945700 -0.633160601400
C  -2.931460693800 -1.192021334500 -1.468816570500
C  -1.850234206100 -0.273002050300 -0.907919417400
N  -4.855865099800  0.132195613900 -0.765308668800
C  -4.715970678600  1.296887398100 -0.579600605500
O  -4.781695726700  2.452432031500 -0.482541701300
H   3.969545924300 -0.273189232200  1.741047915900
H   3.836149805100  2.083749329600  0.977052012800
H   3.142337409400  1.557949739500 -0.559917029900
H   1.898918572600  1.140301456600  2.200766512800
H   1.366995500400  2.316357678000  0.998420659100
H   0.822792117200  0.492510003800 -0.571700099600
H   1.645879490100 -1.356204628000  1.708123695400
H   0.969045823200 -1.872128855900  0.161264418100
H   2.901208685400 -0.921631752800 -1.045633449400
H   3.428518868200 -2.103936366600  0.155965136700
H  -0.843348377200  1.344547930400  1.077407088700
H  -0.362537387200  0.081373795700  2.206152281500
H  -1.171999744600 -1.647583393000  0.596726238500
H  -2.605958818300 -0.783409642800  2.416616017800
H  -3.176915567100  0.511493151300  1.366280192100
H  -4.810035213800 -1.341777785600  1.430961935200
H  -3.567918939900 -2.481073930500  0.896756635300
H  -4.936516961100 -1.862698729600 -1.016941204600
H  -2.574708747800 -2.223980911300 -1.464940239600
H  -3.156569269900 -0.914536712900 -2.500403691300
H  -0.955847295700 -0.371101252100 -1.524329068000
H  -2.184966647800  0.765627050600 -0.969067221100
C  -7.851787030166  1.376498791208 -4.355707038536
C  -8.869754825852  1.170361219178 -3.230357616972
C  -10.180418191454  0.628610951356 -3.800906205592
C  -8.306517671212  0.162191625927 -2.206487692798
O  -7.079330011770  0.550011267808 -1.650445462758
C  -9.168592490599  2.509712487496 -2.525550328315
O  -8.036763565531  3.136103351750 -1.961789798746
H  -7.788635048971  0.478566415804 -4.965333295260
H  -6.861473343529  1.565601228572 -3.945370861451
H  -8.143553593985  2.206992838850 -4.996720185846
H  -10.016531104455 -0.336753438175 -4.273116758452
H  -10.920624327038  0.503980666953 -3.013780893412
H  -10.581795961014  1.312451340482 -4.545472223342
H  -8.123634486601 -0.797242550348 -2.698520719579
H  -9.055607171706  0.004579202470 -1.414558771356
H  -7.192171764237  1.449493229684 -1.305064453857
H  -9.662218240372  3.188901119057 -3.235060488900
H  -9.850786549165  2.340657898569 -1.687931058291
H  -7.427282251462  3.359143601626 -2.674744660252
