271
pair_id=pair_d434badaff61c4b9cbd1 start=4 nco_site=2 oh_site=2 attack_angle_deg=105.000000
C  -0.000459126700  0.000735647000  0.522920831700
C  -0.992010663100  0.785756250600  1.378015788600
C  -2.016019424300  1.545821546900  0.531210324300
N  -2.900118248500  0.690267334900 -0.172920072400
C  -3.027304416400 -0.361792352400 -0.706570253900
O  -3.350981806000 -1.330304924500 -1.258230835400
C   0.991685933700 -0.781037848400  1.380304733300
C   2.015050216700 -1.544161560500  0.535524113100
N   2.899661976200 -0.691079752300 -0.170947158200
C   3.028001394800  0.359617411700 -0.706957544600
O   3.352420678500  1.326287571100 -1.261459476700
H   0.543752107700  0.694726014500 -0.123116924700
H  -0.545127995300 -0.695790143500 -0.120004612200
H  -1.519839110600  0.103171708700  2.047840451100
H  -0.453194586000  1.512088430100  1.989342102200
H  -2.639266568200  2.176501823800  1.171880418400
H  -1.502500947100  2.189849824200 -0.192137373200
H   1.520081193200 -0.095964201300  2.047135765000
H   0.453279376600 -1.505025608900  1.994762298100
H   2.637854627800 -2.173717065300  1.177729304000
H   1.501047115700 -2.189637061700 -0.186196264700
O   8.099015956289  3.135262495976 -0.847547597138
C   8.468041184727  4.430428244795 -0.392307872044
C   9.425781208028  4.284584360592  0.782410777911
C   9.915325002923  5.643778884783  1.283771965477
C   10.891397151125  5.505426849453  2.448381322325
O   10.193202545165  5.016772191776  3.591291144475
C   11.070341416982  4.772309026952  4.687866747527
C   10.250536520847  4.406675880382  5.921709123112
C   9.396986783610  3.157376555242  5.708962530837
C   8.568435162791  2.831270123589  6.945244235261
O   7.723373038119  1.724132510145  6.634870714926
C   7.096930986129  1.186222127467  7.795511695087
C   6.186569101111  0.038726469481  7.369832520166
C   4.960886914049  0.489142417431  6.570135787986
C   3.903093437548  1.162347595114  7.439235508582
O   2.739269406004  1.392127100289  6.642579549550
C   1.574350513032  1.569018903783  7.451926151099
C   0.380767733850  1.805908015541  6.535557370438
C  -0.970802735360  1.579954547550  7.216168246990
C  -1.209059070568  2.401945221117  8.478251753297
O  -1.080822840425  3.786675073459  8.175006279650
C  -1.522074961520  4.606175337129  9.258835894849
C  -1.365599857414  6.068837925580  8.864882070021
C   0.099340043980  6.504707414057  8.853107075714
C   0.246049598042  7.893074790320  8.249188499213
O   1.586164641230  8.343906386184  8.422238603191
C   1.832456608749  9.512854444314  7.638680091674
C   3.247073667811  9.998345315549  7.918438589504
C   3.526376566602  11.328349898330  7.219852933522
C   4.899529741873  11.888980234617  7.571932123542
O   4.948735325570  12.167690474965  8.969920705587
C   6.156261889489  12.817052530561  9.349012504132
C   6.175429271028  13.066336010281  10.855822159343
C   6.360884219459  11.800546114189  11.706416005548
C   5.150962294681  10.871586461910  11.755471086250
O   4.029408364787  11.588198626566  12.265654700398
C   2.827160113290  10.822488410504  12.198183310073
C   1.669454293392  11.752136970384  12.541690986470
C   0.294590527415  11.089802723440  12.501948022116
C  -0.043504506733  10.468073025666  11.147630869617
O  -1.447494750844  10.201193829335  11.067579528335
C  -2.189995366620  11.292908191000  10.514748835798
C  -2.242509039508  11.187640199278  8.991774076573
C  -3.199154757607  10.081400791200  8.530227851036
C  -3.010947186664  9.715171238431  7.059824776746
O  -2.971587442251  10.894709451251  6.264401424523
C  -2.923999824223  10.647638215473  4.859175901772
C  -1.658538233182  9.910165892574  4.418056497538
C  -1.500371664852  9.942033016598  2.897198786659
C  -0.404118146164  9.004800249456  2.400522141132
O   0.844711961466  9.350211009841  2.997084856840
C   1.911205421131  8.526201378842  2.522771895937
C   2.504659881123  7.688612065546  3.651737077578
C   1.471021482138  6.771392130689  4.310476743763
C   2.115038257763  5.705277894178  5.189449008970
O   2.936317028899  6.322770752679  6.174342722273
C   3.562339483211  5.356617495672  7.014279756328
C   4.502056118273  6.082889697564  7.966637277337
C   5.262747129869  5.103442437624  8.861184549271
C   6.260166214125  5.815044780218  9.769896711648
O   7.226341483810  6.473800817150  8.957696225079
C   8.192021037461  7.190435767540  9.722489818579
C   8.939754386468  8.136202898109  8.786287639825
C   8.017944476407  9.252006804191  8.275646936352
C   8.684235469510  10.121574131211  7.210052061487
O   8.998348351813  9.403862325477  6.019353351882
C   7.857447277624  9.032167250337  5.239224658527
C   7.795379667714  7.513505361553  5.170892751055
C   6.619637831824  7.002937515719  4.346540277074
C   6.592967718567  5.480071667498  4.358679124424
O   5.525520422747  5.012358449393  3.536799446882
C   5.403743055635  3.592073342489  3.626006989576
C   4.571031502067  3.086520142844  2.454984657324
C   5.292937377017  3.317925821374  1.130817676705
C   4.546883404590  2.719770661048 -0.052379479183
O   5.295054736047  3.014332478203 -1.237815589765
C   4.705729224533  2.407282809923 -2.389089308867
C   5.409466331929  2.953061332123 -3.625956165536
C   4.821044946973  2.372694644426 -4.912526883701
C   5.370353115476  3.050430796265 -6.171351502975
O   5.277485774840  4.472082814513 -6.111079283568
C   3.958322845947  4.975742812178 -6.306866120242
C   3.923498147658  6.400800794995 -5.767267122235
C   2.499486801122  6.937135952300 -5.687028131721
C   2.451506249669  8.294921886991 -4.993535278299
O   1.089656670942  8.641116567886 -4.739602153379
C   0.748357869949  8.673374812019 -3.352217953656
C   0.653222273185  7.269469843768 -2.756530654689
C   0.204021072075  7.302576007343 -1.300011390530
C   0.072079965768  5.897722919184 -0.719598139450
O  -0.343240368246  6.018717902972  0.639979823602
C  -0.769030339540  4.784395013618  1.217768753795
C   0.397876423183  3.847398037224  1.524824617849
C  -0.081940075103  2.604555971561  2.278253195053
C   1.059631262954  1.674608421882  2.666541786513
O   1.738421547250  1.221135212140  1.503194236685
H   7.158605187176  3.188898803995 -1.122614894681
H   8.938282178640  4.962817338650 -1.224644221281
H   7.569877733598  4.978862483027 -0.091220957427
H   8.925096238132  3.734251086148  1.588774117016
H   10.278630128148  3.663817419240  0.480570402149
H   9.051642353951  6.241486780750  1.599802408225
H   10.410589722295  6.177113331243  0.464188801358
H   11.314538302156  6.488061819229  2.685720627557
H   11.708434283805  4.823798877197  2.184949033845
H   11.755794935472  3.956741292555  4.430982648736
H   11.657174427981  5.673578349726  4.899454327197
H   10.926539262648  4.255031430297  6.771084684422
H   9.590551588162  5.244536090124  6.173943669336
H   8.728756435594  3.280521050492  4.849782231374
H   10.036560642103  2.299959996154  5.464807498376
H   7.944310750133  3.685257490029  7.229076590794
H   9.230479469724  2.579079228744  7.781831148161
H   7.870676086787  0.798452191888  8.468049767489
H   6.537424583644  1.966362802120  8.321242577039
H   5.863456437103 -0.520897870088  8.255155452798
H   6.763032786344 -0.651231564786  6.741010738190
H   4.508873343556 -0.391304142315  6.095231056579
H   5.247793630351  1.151457509856  5.745527040513
H   4.256504117128  2.124126227818  7.823605192488
H   3.658683797817  0.511151009323  8.286937251035
H   1.720643282630  2.420254711503  8.126098659641
H   1.415322596172  0.661726769239  8.046135081819
H   0.437487089492  2.819830032410  6.122070083729
H   0.447694981603  1.133902614631  5.671300583673
H  -1.752583884915  1.821955086446  6.485290980740
H  -1.080542463864  0.516596199657  7.460251776951
H  -0.493831439773  2.133248194343  9.263186393112
H  -2.219892639238  2.193063534587  8.848364900546
H  -2.580659460451  4.398729296877  9.452838361672
H  -0.944316312757  4.378955526732  10.162002994699
H  -1.800793866928  6.224718292099  7.870088091186
H  -1.918640728437  6.696573918477  9.573339390666
H   0.504521681463  6.494764415739  9.872408740118
H   0.710114749937  5.799937761638  8.278441891219
H  -0.007630105163  7.856851440307  7.183752320756
H  -0.425317775747  8.597277563315  8.749190466040
H   1.717926979272  9.275723319783  6.575014698500
H   1.106579722026  10.287906879509  7.909740915237
H   3.381212103960  10.093978007231  8.999963859581
H   3.968783182611  9.239388071687  7.592798834583
H   2.760258539721  12.054598576512  7.518174911614
H   3.454602015857  11.196284800301  6.134111709226
H   5.069211405220  12.812408167855  7.006687343273
H   5.680861652022  11.167237237491  7.314812107687
H   7.019035655146  12.211616200107  9.052760529891
H   6.215651929593  13.780580747351  8.829584836642
H   7.013483418290  13.739389157132  11.074788648941
H   5.258259827033  13.584998728530  11.157783311994
H   6.576734990363  12.128610748102  12.731338826372
H   7.237349404523  11.242482562116  11.357720990090
H   4.935899546097  10.463050349270  10.764555840616
H   5.365576418728  10.031159176048  12.425686374279
H   2.884594075371  9.993341890435  12.911663720191
H   2.703950028153  10.419389946849  11.189041524469
H   1.682615683184  12.608684582815  11.855120354804
H   1.835140562404  12.178100818983  13.539376553989
H  -0.460932000815  11.837569519330  12.771348226116
H   0.227892470779  10.315669223015  13.276515995871
H   0.284059508511  11.103026436220  10.316773659221
H   0.470385331035  9.506168638269  11.050409991672
H  -1.753321278444  12.250672612802  10.820536010520
H  -3.201988340633  11.249541650893  10.931320360362
H  -2.582234239331  12.145843879362  8.581491568409
H  -1.241432608537  10.993366331521  8.592869226217
H  -3.075456595864  9.176647785250  9.136209740746
H  -4.226806660394  10.433827669512  8.682826147167
H  -3.831743229806  9.066761700446  6.733349918961
H  -2.069831090953  9.170171507449  6.950537452369
H  -3.823051458029  10.098033931538  4.556414890389
H  -2.966720067256  11.628428989145  4.373071313621
H  -0.781890338051  10.354970318689  4.904318183906
H  -1.704991763642  8.868850218856  4.757984538820
H  -1.264264247962  10.968934796017  2.592691460383
H  -2.444921936653  9.664089094234  2.415070028607
H  -0.325084394267  9.096043518553  1.311280026102
H  -0.660068732304  7.969962232470  2.651208834271
H   2.685231850127  9.194184018346  2.129932713006
H   1.593995623577  7.878023092774  1.697676681694
H   3.331568608020  7.093854804801  3.246645061102
H   2.922678640569  8.356756785512  4.414361346171
H   0.796194090391  7.383383086015  4.919708990366
H   0.862838933894  6.274481471714  3.548290122887
H   2.719868578187  5.031063309381  4.572917567987
H   1.331239765694  5.118988164685  5.681743142839
H   4.126790371624  4.646337423843  6.401659975955
H   2.799031945887  4.807126790187  7.575676309609
H   3.929331561398  6.786247824124  8.582421647083
H   5.197924185564  6.695339121180  7.380529432004
H   4.555337141650  4.532061772760  9.472825438426
H   5.802077348826  4.392627398001  8.224848901984
H   6.764106058735  5.084063360327  10.411810805394
H   5.741357099708  6.545806386448  10.400924509080
H   7.707670342711  7.758715694533  10.525309398528
H   8.889100708531  6.472593953862  10.167718247054
H   9.788269167697  8.581527840565  9.317981638725
H   9.339249923097  7.565908051279  7.940213804671
H   7.095588412582  8.817358185095  7.876180248074
H   7.728576284530  9.885048775322  9.122081188928
H   9.625235213098  10.521833048241  7.603030771136
H   8.055621094636  10.982900316210  6.958569521865
H   8.002941767364  9.443607618923  4.234717233727
H   6.927195548541  9.453097567770  5.637793825072
H   7.737423653861  7.103427784719  6.184883747491
H   8.737836621871  7.140189038438  4.752789080882
H   5.673015435544  7.388461013084  4.743939974832
H   6.688090888105  7.364418906768  3.313452339066
H   6.461574060354  5.111730883811  5.382762595756
H   7.534492191259  5.093305593865  3.958001205607
H   6.390944149772  3.114307508708  3.614972935986
H   4.907195846791  3.342644870970  4.568949481577
H   4.375578054424  2.017194420608  2.590647008764
H   3.609219306241  3.610616490978  2.432318735774
H   6.296520844392  2.878999550444  1.177692786826
H   5.438884850374  4.391271841852  0.959286373774
H   3.547006078343  3.160338900735 -0.135765835962
H   4.455530524706  1.633910140422  0.064275246270
H   3.637188265266  2.649496924069 -2.429438910058
H   4.825156400291  1.320110378562 -2.324549877124
H   5.325891013531  4.046420022386 -3.614638092635
H   6.482995742552  2.734898234648 -3.570385643079
H   3.730925047670  2.477723130088 -4.884520989439
H   5.027925021497  1.297199975026 -4.964279406177
H   6.433348448207  2.806267787356 -6.273095939040
H   4.863661838203  2.678327765293 -7.069250311305
H   3.222983976403  4.365323860387 -5.774789923807
H   3.720735949433  4.956496220508 -7.375845730225
H   4.546632061671  7.050227268118 -6.394001464731
H   4.382365667556  6.414236651726 -4.770141253010
H   2.064772132339  7.022006096182 -6.690571067217
H   1.862654057656  6.225563618830 -5.148894057098
H   2.869010719485  9.060498804780 -5.656361163142
H   3.047104991779  8.298318097716 -4.072973948960
H  -0.228507606846  9.164204100528 -3.281662545582
H   1.463312954386  9.298896421504 -2.804654665997
H  -0.042635732623  6.670241425168 -3.356547049234
H   1.624213682221  6.765675678815 -2.823854695757
H  -0.757709721094  7.822756101984 -1.209132830659
H   0.916819536957  7.880858771647 -0.699903571384
H  -0.668910960243  5.326718032949 -1.290671628910
H   1.036599246836  5.381444102072 -0.763371704534
H  -1.280415685064  5.042849190748  2.151698933723
H  -1.510097994218  4.302033599473  0.569537353900
H   0.892234297950  3.551683139397  0.592910382534
H   1.153206885081  4.382016877755  2.111683296810
H  -0.787724061887  2.059419911703  1.639581283251
H  -0.619654584523  2.903252808466  3.185710074134
H   0.664276223607  0.801196112877  3.194472767049
H   1.773654580075  2.183989995881  3.320652127947
H   2.410971066870  0.586660174502  1.807972955855
