46
pair_id=pair_597bf6d46537121911f9 start=2 nco_site=1 oh_site=2 attack_angle_deg=105.000000
O   6.071138798300  2.480874245000 -0.539966886600
C   5.281563264000  1.703290642200 -0.203729312400
N   4.583194840700  0.895553337000  0.323028101100
C   3.469566272400  0.097992287700  0.217823463600
C   3.141003666300 -0.720825069600  1.291776942100
C   2.027239290200 -1.535897111400  1.217504870200
C   1.230376574900 -1.552900220000  0.080976745700
C   0.000129982500 -2.417918638600 -0.002577497200
C  -1.230253681400 -1.553071685200 -0.084299228600
C  -2.021435998300 -1.526209840700 -1.224619472200
C  -3.134787785500 -0.710465627800 -1.297435226200
C  -3.468763238200  0.098981255200 -0.218056518800
N  -4.581846364100  0.897438299100 -0.321975352000
C  -5.282652338400  1.701065266500  0.207899688400
O  -6.073694902800  2.476057311700  0.546553031600
C  -2.680498724400  0.084975519400  0.931153113200
C  -1.572915706700 -0.735626567500  0.987803746500
C   1.567638803400 -0.726117648500 -0.985674162700
C   2.675451036000  0.094047662700 -0.927432521900
H   3.761402694000 -0.710428411900  2.174324307200
H   1.779230559000 -2.170944736200  2.055913696000
H   0.058433977900 -3.056457871800 -0.886664495400
H  -0.057740878700 -3.058561817600  0.879976911700
H  -1.769229849800 -2.154027086400 -2.067217719300
H  -3.750781892300 -0.692421148900 -2.182945547900
H  -2.943609239700  0.716629811900  1.766859046600
H  -0.960209384700 -0.742612630800  1.877475508100
H   0.950329509800 -0.725172817000 -1.872181069100
H   2.934211927200  0.733133578500 -1.758835180200
C   6.412454725300  0.612220843041  3.585190501302
C   7.410720129748  1.601681907983  4.185079009530
O   6.748039520606  2.839908946335  4.327845558880
C   7.573805688041  3.866266057698  4.835214215119
C   6.712824065544  5.120648237508  4.978975497802
O   5.698212453270  4.947830886816  5.930763081031
O   6.025958815690  0.985107215345  2.290281078118
H   5.537143921117  0.547489093042  4.247262777176
H   6.871656508154 -0.374633856559  3.502565550458
H   8.275996986495  1.713809688330  3.515562905090
H   7.765409992840  1.240424606828  5.161330332584
H   7.976947900723  3.573735896628  5.815745412253
H   8.413932589354  4.057165860362  4.151748619508
H   6.284935455535  5.370437535318  3.997536977576
H   7.326477752059  5.954932296878  5.323937792947
H   5.231795040983  4.132524497585  5.708800129439
H   5.743113161646  1.907078091445  2.329118994093
