142
pair_id=pair_40af32527bfdc13057fd start=4 nco_site=2 oh_site=2 attack_angle_deg=105.000000
C   0.159883306100  2.323753869400 -0.000995589400
C  -0.915882950700  1.477548341000 -0.000889906500
C  -0.733639648400  0.081070027900 -0.000518832500
C   0.583222895200 -0.449703940800 -0.000364756500
C   0.783355439400 -1.844419106000 -0.000205264700
C  -0.284573324100 -2.698870241200 -0.000232302300
C  -1.590540479800 -2.199499701100 -0.000313781500
C  -1.818214859700 -0.843116478200 -0.000342842400
N  -3.121474537100 -0.417891108100 -0.000126661600
C  -3.872846675800  0.506806114300  0.000830545000
O  -4.755064004400  1.257563566600  0.001595702000
C   1.674770097700  0.460296976500 -0.000398062000
C   1.463863819100  1.820274224000 -0.000699877800
N   2.939587000300 -0.071992494900 -0.000175286400
C   4.110474945300  0.148126150600  0.000736432600
O   5.267788579400  0.154240520700  0.001452554500
H   0.010107250600  3.392630684300 -0.001358245900
H  -1.917456576800  1.881777715100 -0.001153599100
H   1.795046022600 -2.219835175600 -0.000080892500
H  -0.129086437300 -3.766877366400 -0.000148362900
H  -2.432680020500 -2.873840173600 -0.000261212800
H   2.307590927200  2.494321811000 -0.000741655800
O  -6.020434596907 -3.337234207732  37.202560995532
C  -6.303020709275 -3.346367472724  35.810052824953
C  -5.038873847305 -3.662380410422  35.021838087507
C  -3.853362672278 -2.738012308127  35.324024546298
C  -4.148687071217 -1.252480272248  35.145748501868
O  -4.669760202599 -1.025130130263  33.837555193636
C  -4.939484108092  0.357108362845  33.609505701325
C  -5.484898476445  0.512308374640  32.194963667678
C  -5.839570454780  1.967496728626  31.886979980486
C  -6.390128043600  2.138138500520  30.474754831660
O  -5.368809019028  1.817974518418  29.533308600286
C  -5.826037996213  1.950458799708  28.188992856774
C  -4.699237712309  1.573432409268  27.232750489398
C  -3.484227365722  2.496453328032  27.378354177720
C  -2.361060449842  2.122450791437  26.412230558918
O  -2.782844609123  2.153065969366  25.049266566212
C  -2.812875014484  3.467592944243  24.495002282852
C  -3.256537174553  3.353526780974  23.040101524917
C  -3.411771116323  4.702103365067  22.342919378345
C  -2.094781279631  5.449725170179  22.159553383877
O  -2.371647424116  6.653598841942  21.444321088989
C  -1.228137035979  7.487833731404  21.270214217130
C  -0.244192420554  6.954737889786  20.229030023863
C  -0.919264934259  6.663483660825  18.884659582050
C   0.082070508091  6.223906429301  17.820222850127
O   0.719216676725  5.019545428862  18.242049300586
C   1.658314767594  4.517345846592  17.292260146586
C   0.959246208667  3.656859467126  16.243192748973
C   1.959085455188  3.038757563075  15.272152836735
C   1.268156180911  2.162618134862  14.234562156786
O   2.266522849239  1.643697372585  13.358169521825
C   1.707519789728  0.801226885074  12.355109995553
C   2.820654565122  0.301534610750  11.438357284012
C   3.656529766319  1.408268852182  10.788716973903
C   2.837687420410  2.358570023908  9.917776607454
O   3.690264663887  3.302142100879  9.268061138466
C   4.222406876981  2.850233174172  8.024197525559
C   3.253056784600  3.107999641568  6.871080535285
C   2.903128368214  4.593969441115  6.733302956501
C   1.929536609523  4.851967048684  5.584317572953
O   2.415972047550  4.365459706705  4.334754953149
C   3.380255245326  5.222346584316  3.729269909063
C   3.784348097844  4.639752586755  2.376631125225
C   2.606290003902  4.585791231269  1.396217666930
C   3.023096348490  4.122165091506  0.004197660454
O   3.397893240135  2.752396138268  0.003004646867
H  -6.866267654431 -3.195474283762  37.661038511765
H  -7.062342779502 -4.110814506400  35.615470673023
H  -6.718025933180 -2.373958324131  35.528269606353
H  -5.268625433244 -3.638964523270  33.950233415040
H  -4.723978882701 -4.687117213375  35.255695581274
H  -3.037181263789 -3.018692309552  34.646476023786
H  -3.491819016961 -2.912498197300  36.344065355102
H  -4.868826276009 -0.908174006386  35.896198531941
H  -3.221120703434 -0.682431964660  35.273893758386
H  -5.676056945693  0.709267708276  34.340838933731
H  -4.015677490085  0.935552747898  33.724946950843
H  -6.369331543798 -0.125741281372  32.074170538981
H  -4.742777534984  0.134569313675  31.480926528985
H  -4.940410499899  2.584943953293  32.002042857409
H  -6.584143679023  2.324939253413  32.607594507212
H  -7.257436263734  1.485589250671  30.321817791000
H  -6.701061055251  3.178918959166  30.329276891477
H  -6.678651935167  1.281110129714  28.027187151426
H  -6.148297774329  2.982408874013  28.008170237913
H  -4.384522058753  0.542414718611  27.435116173369
H  -5.080521063786  1.609627949644  26.206094440142
H  -3.094541020411  2.446914032109  28.401680657853
H  -3.800784314470  3.530752010688  27.204989056027
H  -1.491063639971  2.773830948471  26.555685908367
H  -2.031985109216  1.098535314597  26.621087060800
H  -1.811817500725  3.905953784633  24.560452922431
H  -3.517477295238  4.094400633446  25.050498173220
H  -2.550267747523  2.720293360295  22.488735080551
H  -4.216048185978  2.821804291368  23.004926742011
H  -4.119721406462  5.334126195638  22.893585076825
H  -3.866795129574  4.543265916045  21.356829218208
H  -1.393089318132  4.828959217027  21.593705643031
H  -1.653939660577  5.701586646553  23.129422224091
H  -0.727289564212  7.644433817095  22.232705745612
H  -1.599024416870  8.465346212299  20.942482439933
H   0.556305067697  7.691357566642  20.091614925431
H   0.228340349212  6.040283064891  20.604100330835
H  -1.446711522092  7.557637846444  18.533114642012
H  -1.663519946584  5.869706522008  19.020137684654
H  -0.447958109001  6.057825255237  16.876874294501
H   0.836105688137  7.004524528617  17.667209002665
H   2.224270785832  5.337201885088  16.834439421569
H   2.371377116255  3.900560139461  17.850115427525
H   0.228653539302  4.257434821001  15.689614481628
H   0.382381541415  2.871311006211  16.746969313730
H   2.698703915581  2.438946958004  15.817217276702
H   2.528325204141  3.826121980752  14.762212918754
H   0.547232929867  2.753312128993  13.657801469810
H   0.743151027816  1.334691189053  14.724611176702
H   1.218932022925 -0.056479720081  12.831758168894
H   0.952875005648  1.351184738610  11.782197406441
H   2.387267738654 -0.338029292436  10.660665786546
H   3.503127014965 -0.324712651546  12.026452082542
H   4.445373996319  0.940082485476  10.188337054309
H   4.186150772708  1.988050628030  11.554873018933
H   2.228064865936  1.811454842427  9.190653286533
H   2.155959657645  2.940549504078  10.545968359572
H   4.490232356911  1.789177287401  8.072274612089
H   5.148609326660  3.408617704301  7.849657069477
H   2.328242360903  2.541325416162  7.026656441120
H   3.707974337494  2.740750912364  5.944061933222
H   3.826047021958  5.163353459392  6.577318527869
H   2.451370922019  4.962929229964  7.661310017236
H   0.989653426720  4.326060970088  5.785410572288
H   1.688817153484  5.918814362211  5.509420532248
H   4.267933492942  5.291398570780  4.366008133334
H   2.959683003831  6.225956478923  3.598741064051
H   4.175482504652  3.627365800665  2.529784349032
H   4.590482927614  5.249162063287  1.952303096948
H   2.158880660703  5.583342928084  1.314990305158
H   1.839512258443  3.906998485521  1.787763112904
H   3.855791153450  4.716835940879 -0.385174031610
H   2.181569380646  4.231059088443 -0.687124347779
H   4.168960895403  2.650624121935  0.584789399677
