352
pair_id=pair_c331ce60e3e4002a477c start=2 nco_site=1 oh_site=2 attack_angle_deg=105.000000
O  -0.892359844500  1.922011143500  1.551618387200
C  -1.404048441200  1.265858264700  0.741439727900
N  -2.097646827800  0.724591544800 -0.055434653500
C  -2.188583977800 -0.380267317600 -0.939051686600
C  -1.948006681800 -1.723900442000 -0.237227573400
C  -0.600190088900 -1.812992178400  0.478380570900
C   0.590144176500 -1.814376315600 -0.479165993500
C   1.938255299900 -1.732525388000  0.236759994800
C   2.184943254300 -0.390931150000  0.940312561300
N   2.100561577500  0.715338087100  0.057787667700
C   1.411701532000  1.258791172400 -0.741747682600
O   0.904946916700  1.916913100500 -1.553406737200
H  -1.481714308000 -0.239304900100 -1.763952380200
H  -3.200357203700 -0.362292705500 -1.353096596100
H  -2.021952472600 -2.511158111200 -0.989744811800
H  -2.743023821800 -1.878381459700  0.495345010200
H  -0.520339529300 -0.972662132800  1.170725239600
H  -0.579098842200 -2.728618728900  1.073920219300
H   0.513845165600 -0.972072399900 -1.169506146300
H   0.565199503500 -2.728466370800 -1.076911659400
H   2.008388233900 -2.521130983500  0.988226084900
H   2.732711129400 -1.889708449300 -0.495850937800
H   1.477836651300 -0.247147674100  1.764520080100
H   3.196296960900 -0.378477551100  1.355590495500
O  -21.498012902626  12.306883677063 -14.541684757339
C  -22.793284127513  12.803300438821 -14.265989626345
C  -22.839647595341  13.628516992353 -12.987829090713
C  -24.175354192730  14.311725855267 -12.737627846667
C  -24.142035200980  15.120051955491 -11.450048438652
O  -23.103706237302  16.091147496329 -11.435047499465
C  -23.361940710411  17.228013454495 -12.261270940993
C  -22.298568806475  17.445389920803 -13.329873593559
C  -20.910314455305  17.695696593981 -12.743002002227
C  -20.320366707592  16.475482993520 -12.054042077964
O  -19.036505982637  16.731620984924 -11.500539969346
C  -18.271470926673  15.562817101739 -11.227820954420
C  -18.854857215873  14.659878060094 -10.135722846918
C  -19.870722205714  13.626253237363 -10.629005248456
C  -19.259292722344  12.537079747079 -11.500056714241
O  -20.236607225061  11.602831018061 -11.959417812366
C  -19.658810050165  10.365910241842 -12.369830918024
C  -20.698240335129  9.385775600582 -12.889642051716
C  -20.096029444644  8.042422881075 -13.289252977117
C  -21.156056630234  7.006264930885 -13.635072778249
O  -20.607520234896  5.703652321626 -13.807755117230
C  -21.555604450373  4.784911456399 -14.343047897226
C  -21.029830774232  3.357853478246 -14.351150360663
C  -21.973230422376  2.373335522026 -15.032243679531
C  -21.405389369402  0.962010297735 -15.048589640830
O  -21.228399706769  0.450313788565 -13.733461584904
C  -20.391584577856 -0.698197374039 -13.681945051134
C  -18.916995403207 -0.346403470238 -13.814487236589
C  -18.528235144568  0.732663041687 -12.814820490679
C  -17.113369911537  1.258679908023 -12.990318104455
O  -16.867234774232  2.391127359029 -12.160890249794
C  -15.573485894229  2.948289079373 -12.372932334110
C  -15.458821447727  4.361330001924 -11.822273718357
C  -14.070048780791  4.962041076607 -12.022161542680
C  -13.059759504164  4.376606474145 -11.048302351848
O  -13.403727724273  4.683988908155 -9.703424427649
C  -12.487720235048  4.135370961889 -8.759477043795
C  -12.899450342124  4.466116224178 -7.334373213654
C  -11.915333162121  3.982057678805 -6.269969526309
C  -10.600063504682  4.745340191638 -6.258004433345
O  -9.678115910876  4.232902903919 -5.297859213374
C  -8.529397814385  5.066051919718 -5.157155925177
C  -7.337355708139  4.317807721771 -4.577646784640
C  -7.625610251329  3.749391710154 -3.193935866535
C  -7.650100693681  4.816298203463 -2.107346449704
O  -8.556245223094  5.873629753692 -2.399847951882
C  -8.721991668052  6.798595039420 -1.323678560929
C  -10.185628532727  7.139199342030 -1.085662755370
C  -11.012732051447  5.909497702900 -0.716945431493
C  -11.207924914648  4.943682183397 -1.875902202935
O  -11.863915822727  3.747019619577 -1.473289128278
C  -12.155350705103  2.898474698139 -2.577516534335
C  -12.810564917332  1.596685704679 -2.144014903721
C  -13.147094618527  0.666984783516 -3.309849935948
C  -14.080314983273  1.308969205199 -4.328449364321
O  -14.568886732545  0.395811771030 -5.306417837367
C  -15.672863020220 -0.383612935107 -4.850556903787
C  -17.017638562959  0.170570084431 -5.304254096528
C  -17.263277302978  1.598498782824 -4.835792556366
C  -18.618876508675  2.150687148792 -5.252623467094
O  -18.812197532270  3.506697036959 -4.846549440720
C  -18.693443228097  4.436800455598 -5.912363413549
C  -17.273142470402  4.565981215015 -6.436428673890
C  -16.299174217383  5.031945120767 -5.352268777014
C  -16.355017365041  6.533260460018 -5.106051026114
O  -15.405265557190  6.999524560734 -4.154757424237
C  -14.061924569080  6.674431951455 -4.494854620731
C  -13.068704246649  7.711222112159 -3.997587383099
C  -13.364444150762  9.100881826457 -4.543880004814
C  -13.371512062339  9.132840816950 -6.066337104331
O  -12.197977857993  8.548967762304 -6.617441679469
C  -12.291509057525  8.375807113282 -8.028397871039
C  -11.034072639109  7.753975946852 -8.611780005582
C  -11.149138280895  7.411990315836 -10.093655432685
C  -11.248722489050  8.640353330375 -10.985067073204
O  -12.380638460090  9.452402229442 -10.716775946513
C  -13.607351894890  8.857670968742 -11.126040062276
C  -14.770890367729  9.831985895849 -11.021410167170
C  -16.107149096820  9.229235810629 -11.453405306918
C  -16.609944441925  8.143876849801 -10.512849551104
O  -17.860709073932  7.600356346224 -10.926606661676
C  -18.290978841599  6.549886230910 -10.066102809715
C  -19.562004601513  5.867177380605 -10.553853043974
C  -20.015733786433  4.731268282963 -9.639745724418
C  -19.063482049733  3.544409649539 -9.647254644151
O  -19.405297960625  2.565917144450 -8.670432048449
C  -18.854949504758  1.287593760372 -8.954753358328
C  -17.342934364204  1.299718452548 -9.124773984632
C  -16.749103935245 -0.084093754773 -9.359926105925
C  -15.236618624248 -0.041446702012 -9.497310166345
O  -14.687654665548 -1.328760028684 -9.745840598017
C  -13.304077436443 -1.294087428958 -10.055340412421
C  -12.451402954536 -0.763924640183 -8.914121731541
C  -12.722089118820 -1.505143419622 -7.615735331749
C  -11.879624472266 -0.969911335375 -6.470342984562
O  -10.488568273994 -1.100457575717 -6.737602797833
C  -9.668405421016 -0.734268215819 -5.636746036780
C  -9.586577506595  0.767808281436 -5.412514910691
C  -8.900506684226  1.504128809489 -6.559460288880
C  -9.578252235257  1.328675873352 -7.909474915808
O  -9.061069752089  2.235549917985 -8.877414853116
C  -9.625292197647  2.051223314929 -10.172635261079
C  -9.318287468966  3.228534673809 -11.085766875474
C  -9.941609883845  3.104358390665 -12.469757390150
C  -9.677408029642  4.345555976603 -13.307332356128
O  -8.285303223682  4.526579943291 -13.542510563137
C  -7.934909292101  5.872736466754 -13.846128899760
C  -7.719999119215  6.718126706033 -12.598957392431
C  -7.263365042704  8.136893527486 -12.912230240019
C  -6.992104888217  8.937810415364 -11.648243442346
O  -8.158820342580  9.084754429538 -10.850850451729
C  -7.902546674150  9.735537496718 -9.610190952282
C  -7.288393180537  8.811362805012 -8.568564261320
C  -7.198845874702  9.454361889332 -7.187724923532
C  -6.593898838561  8.527449036911 -6.145536877966
O  -6.515771896943  9.142513793322 -4.864524346671
C  -6.133653582140  8.239377463150 -3.835005054894
C  -4.647744544318  7.900821699765 -3.841012621341
C  -4.279814722566  6.783076387829 -2.865913593290
C  -4.609976987422  7.097293304653 -1.413906256663
O  -4.393771633049  5.970205855891 -0.570398780760
C  -4.760769554095  6.217297938655  0.779907888256
C  -4.637396548510  4.975644351835  1.653079804421
C  -5.530184336489  3.835035327564  1.175541269390
C  -4.967612454691  3.156736563097 -0.065656437879
O  -3.742743262227  2.506803359810  0.211758875856
H  -21.057016216575  12.062205866486 -13.694653462616
H  -23.100644021875  13.403992305137 -15.129815787631
H  -23.488549119096  11.956473715267 -14.213791159722
H  -22.582059952420  12.990984265431 -12.134422472651
H  -22.051022429262  14.384886973450 -13.028595305810
H  -24.977324329849  13.563735589482 -12.702807193774
H  -24.416752740594  14.964861236028 -13.583602695438
H  -25.094371652333  15.625652281784 -11.252105472932
H  -23.957846829149  14.459084849418 -10.595357479307
H  -23.411012863804  18.095684062835 -11.592925445803
H  -24.358072721484  17.127983139482 -12.708523008018
H  -22.590143689817  18.285545049575 -13.973881364075
H  -22.261744564874  16.570073152434 -13.987265084868
H  -20.214556191752  18.024619014418 -13.524711097814
H  -20.951822104887  18.523888045166 -12.026811091635
H  -20.228835423337  15.648176170396 -12.765401508332
H  -20.973218342276  16.153694234455 -11.236175398430
H  -18.125239744783  15.020939720516 -12.167371533471
H  -17.280645715043  15.931187424791 -10.933104689931
H  -19.305874037781  15.301463046510 -9.369086085076
H  -18.043798182740  14.125162759489 -9.624765010439
H  -20.678858173466  14.110916948270 -11.179975215071
H  -20.367251690721  13.146009156779 -9.776676335708
H  -18.768840085406  12.958447102511 -12.383552631749
H  -18.491049302192  11.993899519176 -10.938774680462
H  -19.140479011110  9.936902915185 -11.505309861100
H  -18.902960552846  10.574681554094 -13.134873315075
H  -21.234296632900  9.823216996979 -13.739037427660
H  -21.460126051516  9.237221019031 -12.115952691538
H  -19.469513578798  7.663492431926 -12.476064474427
H  -19.408502462167  8.165872060950 -14.133614435739
H  -21.906813017749  6.943809560393 -12.839454484643
H  -21.685161907711  7.288522232235 -14.552109537109
H  -22.477143237828  4.853270394395 -13.754323625833
H  -21.798168144515  5.111466095782 -15.360332086986
H  -20.838754675444  3.038631632876 -13.320919112730
H  -20.051348193092  3.339980376907 -14.844180091045
H  -22.936339569667  2.368816937910 -14.509681916818
H  -22.188309813338  2.711924209729 -16.053237138335
H  -20.439554877243  0.953073296670 -15.563058378817
H  -22.063360205437  0.269025126265 -15.586325648727
H  -20.720820025448 -1.408561219006 -14.449209917632
H  -20.581425326056 -1.170723944602 -12.711273776001
H  -18.288805434073 -1.235204462710 -13.676974819002
H  -18.703955607994  0.005089521850 -14.829729154273
H  -19.225735045607  1.571880611168 -12.900431557425
H  -18.662065670286  0.360055404502 -11.795569775881
H  -16.371551377586  0.487019258775 -12.756786610080
H  -16.950317639203  1.561238872693 -14.030538973102
H  -15.365946966480  2.947299303811 -13.448755499396
H  -14.841147433013  2.280068425788 -11.909461995504
H  -16.227372053014  4.985552528896 -12.295055162801
H  -15.702436624367  4.353491306769 -10.754178150856
H  -14.106809928328  6.047230321270 -11.875044796353
H  -13.743932992854  4.811397753083 -13.058521107484
H  -13.012801756786  3.286947011079 -11.141895129721
H  -12.052447747187  4.761775431157 -11.238956853213
H  -12.449132632099  3.051147216063 -8.907775131372
H  -11.491510669008  4.528759973187 -8.983410930120
H  -13.893320062698  4.037082864283 -7.161454097451
H  -13.030167130447  5.549423948172 -7.251062059759
H  -12.364863040146  4.064582268251 -5.275322266187
H  -11.715221095000  2.915687177461 -6.410103219894
H  -10.113198334475  4.696194724867 -7.237808933029
H  -10.773277809884  5.802665197380 -6.028367470324
H  -8.819561243250  5.901014175830 -4.509588693142
H  -8.286090033014  5.484965603532 -6.140786481965
H  -7.065537877736  3.507702669094 -5.265204146785
H  -6.458421279412  4.971079828071 -4.534289715412
H  -8.595384274922  3.240041356177 -3.223430707796
H  -6.890066844340  2.976031708885 -2.935415174142
H  -6.660116784266  5.263448125502 -1.977370836483
H  -7.935604863578  4.379533406490 -1.143216102658
H  -8.279292786896  6.373619148696 -0.415818416438
H  -8.138484857109  7.693353957943 -1.568391026727
H  -10.598908705717  7.595750371048 -1.991777414037
H  -10.267089468638  7.902530988269 -0.300755913102
H  -11.998946787892  6.203123633730 -0.336535385720
H  -10.531538707476  5.376417210413  0.110700115778
H  -10.246753777731  4.660002719605 -2.314391778046
H  -11.792890543077  5.410162974177 -2.675215012916
H  -11.224362171490  2.706001986380 -3.122238062930
H  -12.817644694934  3.454717418289 -3.247449925722
H  -13.722099600176  1.834466081406 -1.583792000487
H  -12.154814349069  1.092031877294 -1.424512826291
H  -12.227699978229  0.347315543881 -3.810807442592
H  -13.600652446445 -0.257144469211 -2.933747883441
H  -13.570256575337  2.109847771418 -4.872460350397
H  -14.928429859348  1.776799710912 -3.820784383692
H  -15.520955528876 -1.401404238962 -5.230137686680
H  -15.632074857061 -0.451826117430 -3.758274519725
H  -17.064823630805  0.140427550048 -6.397486932806
H  -17.832565776643 -0.476838839202 -4.957691393937
H  -17.177513220504  1.657006577775 -3.744964024796
H  -16.472707933709  2.246277005080 -5.225215252758
H  -18.758060564610  2.081776786316 -6.336495200183
H  -19.426614092170  1.561903619064 -4.802863223597
H  -19.394534080336  4.130443929750 -6.697418733925
H  -19.051700149374  5.398789654122 -5.530198898616
H  -16.955054650531  3.600439808858 -6.844332259095
H  -17.236893591953  5.259671842680 -7.285315539102
H  -15.276485098681  4.749531506828 -5.621679313092
H  -16.506026200085  4.504862936908 -4.414122776111
H  -17.343156481110  6.829681187217 -4.737797424878
H  -16.194462421056  7.086751229763 -6.037889522125
H  -13.848252149351  5.682575718242 -4.080062630520
H  -13.994736304800  6.589864043023 -5.583559291368
H  -13.084936594021  7.727424232080 -2.901005056815
H  -12.050832749501  7.418286087073 -4.284815664575
H  -14.330457279307  9.450099043801 -4.158363001045
H  -12.615006396082  9.810831394133 -4.172370569233
H  -14.234913479563  8.584577865355 -6.458138635584
H  -13.449255560985  10.158252651114 -6.446938293295
H  -12.486259954132  9.354375281628 -8.481602801991
H  -13.162218131916  7.743719178811 -8.233531733246
H  -10.191836126092  8.432122640423 -8.444660752515
H  -10.793759773187  6.854138195286 -8.035878536976
H  -10.289529474862  6.802931185854 -10.400819532595
H  -12.027301005989  6.777465552999 -10.245694653922
H  -11.267026678823  8.371069091387 -12.047804471758
H  -10.371759574578  9.282077688913 -10.846866220030
H  -13.494298129485  8.507126177343 -12.157698998696
H  -13.784055417245  7.976821124764 -10.502618268768
H  -14.842007753471  10.195517692616 -9.990112748775
H  -14.536886839465  10.718792003437 -11.622903347255
H  -16.022605595439  8.816532453555 -12.464918643821
H  -16.868452395102  10.013741442772 -11.524850293177
H  -16.730432790450  8.538678391594 -9.497903380265
H  -15.890490920491  7.320768372373 -10.451213764238
H  -17.471213639274  5.829587605308 -9.986835512228
H  -18.440449294210  6.972790354636 -9.066415407167
H  -19.402237012981  5.485713290365 -11.569082893975
H  -20.353897506446  6.620178680354 -10.643060869323
H  -21.017097114343  4.382344822680 -9.919988831843
H  -20.118172132791  5.105358318480 -8.615738497400
H  -18.039372514131  3.866766117712 -9.436298267862
H  -19.052356830542  3.070989166758 -10.635904055190
H  -19.355776424674  0.902137253538 -9.848250482999
H  -19.145490992396  0.621447342180 -8.135043418689
H  -16.881591036154  1.754761662174 -8.242012636087
H  -17.067662030714  1.953066758811 -9.959372503617
H  -17.021569683082 -0.762022402248 -8.543766589301
H  -17.180165899204 -0.535994784230 -10.259592962719
H  -14.786544630127  0.361174629999 -8.583752244037
H  -14.944074247290  0.620217073287 -10.318962799141
H  -13.019592506998 -2.324954311962 -10.295692614479
H  -13.170798175208 -0.709076102502 -10.973084066264
H  -12.639613949913  0.305791011478 -8.770303599362
H  -11.386353634722 -0.838857813576 -9.165107984094
H  -12.509364819198 -2.571134245361 -7.754990900670
H  -13.789668595906 -1.444985639953 -7.370367536128
H  -12.100962476862  0.089066136253 -6.304701280542
H  -12.101605210235 -1.500923231808 -5.537447312646
H  -8.670840668425 -1.138874231955 -5.841883322974
H  -10.038879555085 -1.259463301343 -4.748398133252
H  -9.060531532428  0.975084760015 -4.471241767970
H  -10.593152030671  1.172885586527 -5.272975768278
H  -7.854702567383  1.186723756129 -6.640916772253
H  -8.859792467005  2.576882776661 -6.342657575254
H  -9.447081072944  0.306708031019 -8.281912037622
H  -10.654545869922  1.506772093732 -7.826083215234
H  -10.707365065553  1.919701161783 -10.068114479589
H  -9.228166374222  1.117735205765 -10.586144870164
H  -8.232663503846  3.348272410154 -11.176793319170
H  -9.661553295428  4.150801241287 -10.604256035662
H  -9.529015295056  2.227114340471 -12.980606050968
H  -11.018132398797  2.916830528818 -12.383228676749
H  -10.172190424606  4.288250068279 -14.284157379749
H  -10.068071845997  5.235045928869 -12.801781445363
H  -7.015211874098  5.833414505454 -14.440867458349
H  -8.705872935302  6.302403877292 -14.495383655611
H  -8.636904076171  6.751103149525 -12.002540112388
H  -6.983168967203  6.223386979182 -11.955990990399
H  -8.031550729480  8.645569737519 -13.505682725459
H  -6.368047391513  8.106758597441 -13.545494339643
H  -6.621888414458  9.942099034646 -11.885925084346
H  -6.223643226897  8.442917296960 -11.046051275374
H  -7.266980027778  10.608887371679 -9.793616767072
H  -8.859882379080  10.129375675758 -9.251510733780
H  -6.292284748020  8.490250647099 -8.891132601907
H  -7.878275561054  7.889572328953 -8.512195289693
H  -6.608193612099  10.375889670565 -7.238651725149
H  -8.193754831575  9.769949671485 -6.853312725812
H  -5.587465477596  8.220418723676 -6.446662681748
H  -7.194505990926  7.616515544270 -6.054608833733
H  -6.748475202599  7.337447620153 -3.922117852907
H  -6.416203994694  8.713354596255 -2.888950005195
H  -4.073408358132  8.805621343024 -3.612143419711
H  -4.343995396290  7.617979944792 -4.854841739225
H  -3.213478519314  6.538276531857 -2.941692693786
H  -4.799460292490  5.862619237841 -3.151218911853
H  -5.657704667593  7.394772247490 -1.308300888768
H  -4.000992117551  7.929680011911 -1.044624902436
H  -5.793618366343  6.582790599081  0.785900976972
H  -4.127486465341  7.031008417558  1.152710585998
H  -3.596184127220  4.633154403727  1.646376258972
H  -4.867258308683  5.231395666555  2.695892791783
H  -5.629117132038  3.078056816161  1.963392303403
H  -6.543242521081  4.211672241758  0.989453667664
H  -4.794224773861  3.900329205854 -0.853545638551
H  -5.673496156799  2.416135534112 -0.464564608786
H  -3.349180205205  2.126626408514 -0.607652512454
