45
pair_id=pair_fd001194f5aff44100ff start=4 nco_site=2 oh_site=2 attack_angle_deg=105.000000
O   6.071138798300  2.480874245000 -0.539966886600
C   5.281563264000  1.703290642200 -0.203729312400
N   4.583194840700  0.895553337000  0.323028101100
C   3.469566272400  0.097992287700  0.217823463600
C   3.141003666300 -0.720825069600  1.291776942100
C   2.027239290200 -1.535897111400  1.217504870200
C   1.230376574900 -1.552900220000  0.080976745700
C   0.000129982500 -2.417918638600 -0.002577497200
C  -1.230253681400 -1.553071685200 -0.084299228600
C  -2.021435998300 -1.526209840700 -1.224619472200
C  -3.134787785500 -0.710465627800 -1.297435226200
C  -3.468763238200  0.098981255200 -0.218056518800
N  -4.581846364100  0.897438299100 -0.321975352000
C  -5.282652338400  1.701065266500  0.207899688400
O  -6.073694902800  2.476057311700  0.546553031600
C  -2.680498724400  0.084975519400  0.931153113200
C  -1.572915706700 -0.735626567500  0.987803746500
C   1.567638803400 -0.726117648500 -0.985674162700
C   2.675451036000  0.094047662700 -0.927432521900
H   3.761402694000 -0.710428411900  2.174324307200
H   1.779230559000 -2.170944736200  2.055913696000
H   0.058433977900 -3.056457871800 -0.886664495400
H  -0.057740878700 -3.058561817600  0.879976911700
H  -1.769229849800 -2.154027086400 -2.067217719300
H  -3.750781892300 -0.692421148900 -2.182945547900
H  -2.943609239700  0.716629811900  1.766859046600
H  -0.960209384700 -0.742612630800  1.877475508100
H   0.950329509800 -0.725172817000 -1.872181069100
H   2.934211927200  0.733133578500 -1.758835180200
O  -4.851935370200 -0.936490520680  2.956487842272
C  -3.682563138688 -1.729818344090  2.968533710664
C  -2.578572281972 -1.192104836704  3.882177540909
C  -1.869144012991  0.063465774887  3.366136139988
C  -2.719332883736  1.341982622688  3.388132670329
O  -3.594784828696  1.464620321378  2.301985899044
H  -5.195630431010 -0.873089900515  3.855139815528
H  -3.937670932058 -2.754072207504  3.274303696588
H  -3.339111565897 -1.755397111871  1.931953189361
H  -1.835429934400 -1.983861089636  3.997106447364
H  -3.000796167536 -0.989770336724  4.871835756346
H  -0.989903283486  0.234371840452  3.990520056131
H  -1.528204886597 -0.103440507540  2.342661056756
H  -2.057583328213  2.210592918625  3.326591212970
H  -3.267801793510  1.401428275814  4.342643537542
H  -4.191686157311  0.696718305731  2.308761189918
