373
pair_id=pair_7d06ceb5c63af0dd1f38 start=2 nco_site=1 oh_site=2 attack_angle_deg=105.000000
C  -2.446703299700 -1.853063307200  0.000123365600
C  -1.098027931500 -1.205932880900 -0.000066001300
C  -0.977301580500  0.191279927900 -0.000010540500
C   0.267967642200  0.804165982100 -0.000123504100
C   1.417991736400  0.026293504500 -0.000147019000
C   1.317979512900 -1.362983689200 -0.000021543200
C   0.069352399300 -1.955586166900 -0.000065144800
N   2.632038095300  0.666782419400 -0.000316067500
C   3.817430935400  0.550232190400  0.000086689700
O   4.971044958500  0.643019233500  0.000273142600
N  -2.082630512100  1.005769681200  0.000064390200
C  -3.274049916600  1.044002541200  0.000022428200
O  -4.404742005300  1.293651270200  0.000058905200
H  -3.016326284800 -1.552982801300  0.880538512500
H  -2.353428997400 -2.935486979200 -0.000257502200
H  -3.016936278500 -1.552395575500 -0.879688210700
H   0.338560408400  1.879666146500 -0.000123025800
H   2.213426184600 -1.965662440300  0.000120232800
H  -0.000809997700 -3.033428387600  0.000035023700
O   10.408405563140 -10.561682294967  0.874668084091
C   11.306484902273 -11.643195683055  0.819086139785
C   10.620483231332 -12.999131004313  0.658362817600
C   9.996080133604 -13.245911734335 -0.725417224931
C   8.593097979296 -12.667015389477 -0.918598944882
O   8.542052476568 -11.253564912244 -1.080234521995
C   8.887750583358 -10.826753845427 -2.392605371358
C   9.109665274546 -9.323171611933 -2.459984591015
C   7.873321313519 -8.543601499630 -2.034369961619
C   8.062858317714 -7.036872524487 -2.107467139559
O   6.922008444794 -6.318987875925 -1.655911643715
C   5.828540749613 -6.369009618636 -2.575036006121
C   4.509625779528 -6.722056100514 -1.903010384101
C   3.346585436619 -6.745017219238 -2.892391306354
C   1.979511001102 -6.790693245090 -2.224265435998
O   1.692408506778 -8.022653743641 -1.572328760627
C   0.388933324352 -7.994537457420 -0.992455411574
C  -0.021193157472 -9.302440248568 -0.329317164220
C  -1.331548124331 -9.162398540444  0.437242683286
C  -1.679168638438 -10.392287036979  1.260372963157
O  -1.853849782125 -11.557532015381  0.462177612446
C  -2.544692523920 -12.589259093031  1.160851108691
C  -2.481799302629 -13.927014321001  0.437677263027
C  -1.073139048052 -14.510235762658  0.426063705140
C  -0.083797252827 -13.657472936922 -0.349551096362
O   1.238975314324 -14.176928752701 -0.285092254697
C   2.181021511197 -13.318832779570 -0.918541205692
C   3.613879167434 -13.759261669654 -0.666091669356
C   4.648616116468 -12.821564701679 -1.278865159706
C   4.471001459783 -11.393595633291 -0.784069566868
O   4.288302851297 -11.329338349114  0.621378234599
C   5.482632092834 -11.485230160979  1.372820961740
C   6.443047942890 -10.324788594051  1.161342230665
C   7.485315903804 -10.156070786532  2.258035376045
C   8.172457858570 -8.806969001483  2.110983667262
O   7.201531256112 -7.769530804006  2.036009749581
C   7.760465089399 -6.488246826398  1.773617269321
C   6.676375309512 -5.430713129074  1.636360512056
C   7.215401164658 -4.029531716082  1.366752632140
C   7.855507788526 -3.888330548031 -0.005050042711
O   8.205113414091 -2.537343060624 -0.282183780368
C   8.827117583753 -2.375033039751 -1.551232579445
C   8.878323755990 -0.908535400385 -1.947558442887
C   9.634998556713 -0.064118509131 -0.932775931922
C   9.436382638858  1.421489877194 -1.193613846943
O   8.055834380876  1.756219656719 -1.111654913763
C   7.738038850327  3.048229987179 -1.617021180971
C   6.230340387368  3.202329362180 -1.746711306920
C   5.654264036276  2.086605514031 -2.609416234974
C   4.136034089721  2.031752239024 -2.607951151353
O   3.658317783516  0.888663810709 -3.304236985586
C   2.243045748155  0.775716586830 -3.310972881715
C   1.620917984141  0.709602222046 -1.917480260227
C   0.226196723199  0.090036916945 -1.909843793932
C   0.295595697880 -1.416763679160 -2.102695583856
O   0.935527837049 -2.052387177579 -0.996124638302
C   1.609956202225 -3.257066605472 -1.346021317194
C   3.102827122304 -3.048769243182 -1.552168975366
C   3.801511715116 -2.500564967722 -0.311356153725
C   3.485571954667 -3.306486254537  0.941978788989
O   3.742230668304 -4.697201072548  0.768049248197
C   3.012150524005 -5.506867284249  1.688184274332
C   3.262796570567 -6.992879373764  1.473161539247
C   2.302613721636 -7.881973423854  2.253139826729
C   2.598065766553 -9.367723694087  2.068729148887
O   1.449964656030 -10.180869816867  2.298013576366
C   1.782265306130 -11.539307954582  2.554235872630
C   2.054169053936 -11.766436421866  4.030289076507
C   0.856582052405 -11.322726975902  4.856342610580
C   1.056497402232 -11.464898416335  6.354914212603
O  -0.085507425227 -11.017441271350  7.079261560193
C  -0.015314230247 -11.289058140259  8.471270907564
C  -0.003832309480 -12.779483727445  8.785750139849
C  -1.107973641650 -13.512551061285  8.032809219282
C  -0.980465745925 -15.027707482351  8.096426533422
O  -2.044156586588 -15.723496097500  7.459271971238
C  -2.213707893077 -15.361530156985  6.094085478660
C  -3.203974522970 -16.260274871027  5.370963666106
C  -3.495512608224 -15.805965348014  3.942475684000
C  -4.113179989060 -14.414171880186  3.896086717525
O  -3.183536044903 -13.406551217570  4.281931973366
C  -3.809928547271 -12.160464577322  4.571773071454
C  -2.801018452248 -11.094946256275  4.970069369558
C  -3.444391713190 -9.744337310064  5.255707602083
C  -2.428800190607 -8.680483844137  5.641404755752
O  -3.027666235586 -7.402680918538  5.855495032200
C  -2.115681851732 -6.486007775483  6.444280451374
C  -2.607911081797 -5.044834828860  6.458994520379
C  -3.932863071383 -4.863101517194  7.190494574808
C  -5.114389799532 -5.335657038166  6.360724782744
O  -5.283599742689 -4.553338047592  5.180027533422
C  -6.269371924745 -5.084468289669  4.290902773317
C  -5.650881773718 -5.737553296975  3.060903247121
C  -4.567974726043 -6.732521992494  3.435625804877
C  -3.937638199509 -7.423841180501  2.236445765014
O  -3.559235554764 -6.543228228453  1.191472106023
C  -2.589094899475 -5.570979853669  1.566623347394
C  -2.230173873001 -4.684216901930  0.382256412617
C  -1.361365401113 -3.483468944948  0.745645506649
C  -2.057113597875 -2.491863886970  1.673135655177
O  -1.431165225392 -1.215815234098  1.726979454051
C  -0.035799741633 -1.295552664292  1.981769444564
C   0.574931428349  0.040412161091  2.379383324285
C   2.094880637706 -0.034212996431  2.508306878935
C   2.553516290447 -0.935764871538  3.645912571015
O   3.947787542828 -1.216504123542  3.593896320912
C   4.410573749353 -1.844142803586  4.788992044950
C   5.640529186967 -2.704376256865  4.551753018428
C   6.234899931393 -3.261058057650  5.838511371704
C   7.361414207445 -4.240619544391  5.552863485242
O   6.932260042218 -5.346556316267  4.771433494313
C   6.257877273018 -6.340773215492  5.537078794927
C   5.691820716842 -7.446591925402  4.659824904006
C   5.102355471460 -8.614682876527  5.441054741772
C   3.854485190366 -8.214996865653  6.211873444605
O   2.869878176562 -7.656047894604  5.352868544978
C   1.595426195104 -7.530711607443  5.963935812080
C   1.576003862709 -6.546321530783  7.121366592407
C   2.100485359069 -5.167415850749  6.732532078508
C   1.321421108342 -4.510055832941  5.596082891248
O   1.538515642790 -3.104719193083  5.536336582073
C   0.672371059420 -2.383167246926  6.408427969778
C  -0.650260000748 -2.030992031182  5.743376527734
C  -1.681620525673 -1.449082195891  6.701535153702
C  -2.930668020954 -1.021998031059  5.948334522880
O  -2.607477507205 -0.016953597568  4.992907422865
C  -3.545274828998  0.086964509877  3.929195541185
C  -3.075795578046  1.112307266697  2.909876931934
C  -2.920610530483  2.489537266182  3.538509360751
C  -2.088412266572  3.427638170736  2.677448354009
O  -0.733303588043  3.000177317913  2.615021046459
C   0.102568239552  3.887782849491  1.879658224998
C   0.034226446484  3.654421127068  0.378874528630
C   0.977372076047  4.546914419779 -0.423841752798
C   2.438645922516  4.422633216753 -0.002816451795
O   2.911778941666  3.093810541836 -0.001820232596
H   9.720656407036 -10.709699712961  0.182286793423
H   11.897492587403 -11.603838979729  1.743128882529
H   12.010423550672 -11.465366197324 -0.003745575985
H   11.354553404836 -13.788839900708  0.870056266405
H   9.851340777529 -13.106734982952  1.430909228642
H   10.668408785457 -12.865270256691 -1.500549077282
H   9.947088286788 -14.329565497155 -0.902796821024
H   7.969955925083 -12.912160792803 -0.052064439976
H   8.094452635888 -13.110872759841 -1.788716659552
H   9.782413538491 -11.369297731336 -2.716056670744
H   8.071677988922 -11.125945784448 -3.059708222260
H   9.406406019166 -9.024216614415 -3.472870716217
H   9.950933344786 -9.051790403157 -1.811937413866
H   7.598716579164 -8.812583362246 -1.010277623114
H   7.016954289290 -8.847924486123 -2.645308745887
H   8.908122538408 -6.728313660757 -1.482754240949
H   8.298132384968 -6.710477907338 -3.126507979495
H   5.766307027515 -5.384435291997 -3.053167111690
H   6.050699968910 -7.081082272619 -3.376959588458
H   4.316784363833 -5.994363109226 -1.107463923954
H   4.597257086146 -7.688630755320 -1.394504850375
H   3.450503137464 -7.602063046146 -3.567311366571
H   3.410742947315 -5.857991727856 -3.535622941167
H   1.184566699255 -6.618236298062 -2.960003176119
H   1.899519838534 -5.996757691160 -1.475166504139
H  -0.330379544985 -7.726762514366 -1.774504755709
H   0.373482765146 -7.178675325265 -0.261061370417
H   0.770958264118 -9.627083868694  0.350285024210
H  -0.097660437635 -10.099929690254 -1.076629810547
H  -2.146637628757 -8.951081126421 -0.264267736727
H  -1.270272231071 -8.284000190107  1.090375703282
H  -2.601914315899 -10.232366130429  1.830161545163
H  -0.884727169058 -10.605870083571  1.983765670099
H  -3.580981963215 -12.254974956136  1.288857105851
H  -2.105527212459 -12.678790084984  2.161103163207
H  -3.178899223071 -14.638623467080  0.898492448021
H  -2.830400323048 -13.790129425348 -0.592002217742
H  -1.074045810403 -15.523510316719  0.006170174971
H  -0.711198665825 -14.623842473190  1.454431943373
H  -0.373132231115 -13.582424266137 -1.403568546946
H  -0.065426740012 -12.638088713940  0.050487272632
H   2.019182820033 -12.306303476655 -0.533162986456
H   1.959061949323 -13.296477616833 -1.991105230638
H   3.747603639263 -14.784315801818 -1.032020567728
H   3.767779350545 -13.814671325015  0.417669797118
H   5.657318393747 -13.174210007136 -1.034649669937
H   4.583908912752 -12.851632393650 -2.373628981396
H   5.304894612547 -10.747214831068 -1.077196490884
H   3.575787866906 -10.941742440209 -1.227557203220
H   5.941492695067 -12.449963082478  1.134387752271
H   5.181302062341 -11.539401294629  2.425046689039
H   6.940141030929 -10.419847612884  0.191673531786
H   5.854870407617 -9.401202119846  1.096075630613
H   6.993059115481 -10.204644525148  3.235879937337
H   8.208714595988 -10.980007231414  2.241816444349
H   8.767816270705 -8.773933697828  1.192346006497
H   8.847926690721 -8.595862464719  2.947946652209
H   8.356904629681 -6.558456977108  0.858780669008
H   8.442688023166 -6.241006111712  2.594620028094
H   5.992171818122 -5.723084568782  0.831788323709
H   6.071775171414 -5.435626290732  2.550374555566
H   7.940315561727 -3.748745500380  2.138817848146
H   6.410054635388 -3.290100524010  1.445938310416
H   8.759188832005 -4.501064727921 -0.087472008544
H   7.162815800259 -4.223580947624 -0.785465196997
H   8.269977393269 -2.965775049074 -2.288192475555
H   9.834907844615 -2.799433255707 -1.485380282767
H   9.312543918620 -0.782981862740 -2.946995050104
H   7.852019721879 -0.529832537599 -2.017972456202
H   10.698896298490 -0.330484575102 -0.929067588374
H   9.260114812544 -0.302014800133  0.069753999863
H   9.978883700712  2.041887380274 -0.471024939883
H   9.798590476033  1.684836796633 -2.193173098138
H   8.218075784873  3.160899337122 -2.595147837304
H   8.173624976473  3.797063609495 -0.945666020012
H   5.961010579728  4.184433030161 -2.153612592299
H   5.778190285719  3.153945614999 -0.749130660134
H   6.022152606019  2.168397489674 -3.638288050280
H   6.035057823762  1.124256348737 -2.247827127232
H   3.703508688295  2.928828656443 -3.063847689116
H   3.770129511129  1.978115908710 -1.578504529712
H   2.020518145043 -0.134004588335 -3.877932967089
H   1.830758960860  1.606712164412 -3.894415894987
H   2.272123701016  0.117772766922 -1.265759494506
H   1.601862143471  1.714457930032 -1.481225317236
H  -0.276531031335  0.292268924464 -0.956134440224
H  -0.393010681867  0.557345451452 -2.685106561657
H  -0.702741918560 -1.857864806051 -2.206292539700
H   0.846493373900 -1.664281522647 -3.015528431475
H   1.129358644955 -3.689048679914 -2.232136027161
H   1.432910151900 -3.966648110403 -0.531241516392
H   3.568934949240 -3.998176930272 -1.837687310686
H   3.262734941604 -2.373122331715 -2.401261708893
H   3.516245512362 -1.453737889894 -0.158961312195
H   4.886793905335 -2.489503061440 -0.471965123936
H   4.067097027890 -2.961590221515  1.805031738424
H   2.431671510488 -3.185053391838  1.213385499793
H   1.947068416982 -5.284434507360  1.560895917570
H   3.283450164700 -5.204323107876  2.705735444423
H   3.163992136361 -7.218871043889  0.406721399413
H   4.300386162917 -7.238889397606  1.723224260281
H   1.274144678501 -7.680656594187  1.933736011769
H   2.323870128375 -7.627112898632  3.317149698034
H   3.410853957898 -9.688751094094  2.728533572402
H   2.930588555943 -9.571854534360  1.044072921423
H   0.930054115908 -12.145135023174  2.226789189778
H   2.630767883925 -11.821979463459  1.920945512393
H   2.940324459097 -11.201559371192  4.339126894427
H   2.285975997502 -12.820126077363  4.228203515737
H   0.614398861536 -10.280667941661  4.618555613922
H  -0.026371710926 -11.897661893999  4.556432598868
H   1.253868128400 -12.511761457984  6.602943143408
H   1.923284390327 -10.888537591867  6.693296275825
H  -0.896483927581 -10.813898690074  8.917436651959
H   0.861735159912 -10.774133775966  8.880321298180
H  -0.099864124752 -12.951926706486  9.864969964146
H   0.967017064318 -13.210233458205  8.516425007773
H  -2.090568085775 -13.207107946411  8.409539673798
H  -1.089156315089 -13.188800982690  6.987022100516
H  -0.040125447227 -15.362012658538  7.644121673321
H  -0.960691446436 -15.366187770280  9.138247599717
H  -1.236467514188 -15.380892020903  5.599101508238
H  -2.569965359904 -14.327220066576  6.070493759122
H  -4.136147642159 -16.286976968750  5.946740439316
H  -2.827273809525 -17.290183700325  5.383854998938
H  -4.155021117983 -16.528441072525  3.444164330596
H  -2.565250524653 -15.798748227935  3.363629825581
H  -4.977705108525 -14.363122397785  4.567006994463
H  -4.473439238362 -14.163840558541  2.891800731897
H  -4.375941792927 -11.847523583811  3.687724398081
H  -4.535144428527 -12.320529404949  5.377116700456
H  -2.058101046523 -10.988495123513  4.173271474296
H  -2.235982419346 -11.432841453189  5.845547550977
H  -4.005780916229 -9.415037189010  4.375797857662
H  -4.190041048197 -9.840825250365  6.052860894241
H  -1.899480690947 -8.973247414936  6.555537242053
H  -1.671118037699 -8.568962151729  4.857541962039
H  -1.173025599506 -6.564306491176  5.892459168362
H  -1.923126892751 -6.833572705392  7.465535266942
H  -2.721074676219 -4.686358810039  5.429801470741
H  -1.838315417331 -4.411193112132  6.917437584566
H  -4.087269492030 -3.804396649185  7.433735019189
H  -3.898076601674 -5.390969782613  8.151402197115
H  -4.974888640278 -6.381100938958  6.069086914219
H  -6.049395193094 -5.279448103457  6.930634399023
H  -6.933445886770 -4.257977367637  4.010252335995
H  -6.885867871816 -5.802790217732  4.843393519839
H  -6.420649372691 -6.230036471734  2.454171294737
H  -5.221883947788 -4.964818602312  2.413346244616
H  -3.793087719109 -6.215676932331  4.011956323308
H  -4.983614068265 -7.477213280947  4.124127504422
H  -3.055684496179 -8.003486333894  2.529589557411
H  -4.645691361230 -8.132077744051  1.790706182571
H  -2.999327695521 -4.969921191963  2.382895593622
H  -1.705078365919 -6.083069653262  1.961632975402
H  -3.159626103993 -4.333627260671 -0.080912628280
H  -1.743349086120 -5.297287086720 -0.386047109422
H  -0.425865837672 -3.828101892338  1.200173625145
H  -1.065711004542 -2.950496817482 -0.164949008014
H  -2.124350629215 -2.878892535940  2.696047450286
H  -3.085876023806 -2.316491633495  1.338922040202
H   0.125024704865 -2.049943258509  2.758395890183
H   0.441444537059 -1.664314382296  1.067977958631
H   0.130435879372  0.385946523610  3.319207647414
H   0.288654975128  0.791380641987  1.634755806968
H   2.521540789383 -0.404958450428  1.570885853095
H   2.527200080781  0.964068502328  2.645954391101
H   2.323687437557 -0.481057717962  4.616001027300
H   2.039220409505 -1.902027676228  3.617240101133
H   4.619631784005 -1.052056722882  5.516587119749
H   3.598454440167 -2.452497919269  5.203427810091
H   6.393273299329 -2.120520598288  4.010166994642
H   5.379157219767 -3.529801451725  3.880600258137
H   5.448303359815 -3.755572172166  6.418131895144
H   6.589060223617 -2.438374989191  6.472116286847
H   7.821404622781 -4.620430302777  6.472656994735
H   8.157574819774 -3.746110515036  4.984738095851
H   6.975212518464 -6.751718413829  6.255903121837
H   5.463175092006 -5.860799032948  6.114859029783
H   6.486786606221 -7.796038874207  3.992883098263
H   4.924779290321 -7.022405139156  4.003597149238
H   4.843126470332 -9.426126752857  4.750284441717
H   5.857340044208 -9.029688792324  6.119955825971
H   4.096485369311 -7.470910429220  6.977087176899
H   3.416822451438 -9.076153529453  6.729059415730
H   1.263656492755 -8.528417723663  6.273645084158
H   0.906057013921 -7.210014887084  5.175494701537
H   0.557079687986 -6.453015786214  7.516015646671
H   2.166453946270 -6.949218575427  7.952987052994
H   2.085864735584 -4.504584946003  7.605823514426
H   3.155568099809 -5.233688120922  6.445370851442
H   0.247090280935 -4.687975734656  5.701488412747
H   1.608940840064 -4.932545397572  4.626485839819
H   1.199663206323 -1.476543026623  6.726215712447
H   0.507233274017 -2.975664361235  7.314623928409
H  -0.470763116782 -1.319194772743  4.930456839208
H  -1.061679441614 -2.915736020192  5.247130724687
H  -1.254090735507 -0.578086716077  7.210852990265
H  -1.923412291337 -2.169396385009  7.491828027176
H  -3.370017951620 -1.877159861620  5.422403761079
H  -3.699348700344 -0.617928759317  6.617209363251
H  -3.659334391831 -0.903432196704  3.474173219712
H  -4.512972256632  0.370091115808  4.357087011209
H  -3.749769707107  1.155468387747  2.045552013171
H  -2.105906166045  0.790534584641  2.514629448797
H  -2.423245129632  2.377882943317  4.509392361783
H  -3.907085707086  2.917964216565  3.755126763067
H  -2.100464010782  4.446959253653  3.080894771127
H  -2.487494149029  3.472796207540  1.659163242086
H   1.120800273832  3.728480380271  2.250412050242
H  -0.158349163917  4.920484291193  2.135367329864
H   0.258012513501  2.601782012881  0.179056610439
H  -0.997967962415  3.790639943602  0.035682324067
H   0.655926772368  5.592392356427 -0.338108820507
H   0.893413596646  4.299970768236 -1.489471331572
H   3.088044006294  4.990641400542 -0.681052435233
H   2.602944004774  4.851723598602  0.993804788034
H   2.451471079817  2.570843962704  0.693414306489
