214
pair_id=pair_5122a20522ecb6d42280 start=3 nco_site=2 oh_site=1 attack_angle_deg=105.000000
O   6.071138798300  2.480874245000 -0.539966886600
C   5.281563264000  1.703290642200 -0.203729312400
N   4.583194840700  0.895553337000  0.323028101100
C   3.469566272400  0.097992287700  0.217823463600
C   3.141003666300 -0.720825069600  1.291776942100
C   2.027239290200 -1.535897111400  1.217504870200
C   1.230376574900 -1.552900220000  0.080976745700
C   0.000129982500 -2.417918638600 -0.002577497200
C  -1.230253681400 -1.553071685200 -0.084299228600
C  -2.021435998300 -1.526209840700 -1.224619472200
C  -3.134787785500 -0.710465627800 -1.297435226200
C  -3.468763238200  0.098981255200 -0.218056518800
N  -4.581846364100  0.897438299100 -0.321975352000
C  -5.282652338400  1.701065266500  0.207899688400
O  -6.073694902800  2.476057311700  0.546553031600
C  -2.680498724400  0.084975519400  0.931153113200
C  -1.572915706700 -0.735626567500  0.987803746500
C   1.567638803400 -0.726117648500 -0.985674162700
C   2.675451036000  0.094047662700 -0.927432521900
H   3.761402694000 -0.710428411900  2.174324307200
H   1.779230559000 -2.170944736200  2.055913696000
H   0.058433977900 -3.056457871800 -0.886664495400
H  -0.057740878700 -3.058561817600  0.879976911700
H  -1.769229849800 -2.154027086400 -2.067217719300
H  -3.750781892300 -0.692421148900 -2.182945547900
H  -2.943609239700  0.716629811900  1.766859046600
H  -0.960209384700 -0.742612630800  1.877475508100
H   0.950329509800 -0.725172817000 -1.872181069100
H   2.934211927200  0.733133578500 -1.758835180200
O  -6.015817857567  1.002179444985 -2.294904125324
C  -6.399523430627  0.636414310594 -3.604758103039
C  -7.262872093354  1.689315480748 -4.288417454390
C  -7.778507280487  1.261297048505 -5.657908079743
C  -8.780912481911  0.120591512977 -5.558105530419
O  -9.845801053566  0.440219537217 -4.671453131213
C  -10.840155356383 -0.578471003908 -4.617815338746
C  -11.993346794382 -0.189512289890 -3.707153485669
C  -13.106509299354 -1.227272438319 -3.653479917467
C  -14.280931025793 -0.717814695700 -2.834156805238
O  -14.804171553143  0.488891008507 -3.381527275117
C  -15.690703113509  1.157057469874 -2.494083982333
C  -16.210802651510  2.459543149008 -3.084829174027
C  -15.088136870386  3.364503668051 -3.574457790968
C  -14.087432390138  3.687208045391 -2.475022932700
O  -14.726034064360  4.186652199371 -1.305721298436
C  -13.912524700699  4.080472015100 -0.144043623383
C  -12.747257001193  5.059579567524 -0.128687915175
C  -11.797846127117  4.845404491837  1.046883565832
C  -10.999693700410  3.561144554218  0.882041012840
O  -10.273271480048  3.566119545785 -0.341971849825
C  -10.120799072042  2.280684761024 -0.927795292870
C  -9.489749989233  1.239424877706  0.000040067913
C  -8.722659817539  0.172717918222 -0.769517037792
C  -8.261454148996 -0.970407027513  0.123398928943
O  -9.345360034468 -1.775535661043  0.581474158505
C  -9.480424881843 -3.006097929479 -0.125352003321
C  -9.758692115563 -2.846688320892 -1.612397252662
C  -9.809165496768 -4.168637801152 -2.370866226996
C  -10.982139688418 -5.039417132697 -1.956344053099
O  -12.229903492669 -4.374988774571 -2.122020538333
C  -13.327138271794 -5.264992776278 -1.938208289167
C  -14.657001245831 -4.548706244745 -1.797851985944
C  -15.823383871394 -5.502434332558 -1.544662706413
C  -15.598534877924 -6.385121537621 -0.318973307519
O  -14.727003529624 -7.487399442615 -0.579442975002
C  -15.450337880195 -8.660343239215 -0.938571381291
C  -14.575463831368 -9.793086249956 -1.462184193700
C  -13.839957245502 -9.419917543881 -2.749109321750
C  -12.545113562306 -8.674610398437 -2.467665361672
O  -11.541096318204 -9.537897422525 -1.950321229261
C  -10.341613611646 -8.839360896735 -1.631710149407
C  -9.251177599014 -9.778017561235 -1.140810738583
C  -7.992188241431 -9.055883630168 -0.670223708463
C  -8.291541386843 -8.041692369351  0.427867146661
O  -9.197463905444 -8.537476338780  1.400307831033
C  -8.634620357754 -9.517700651800  2.257449443996
C  -9.633911776415 -10.007345712551  3.296787306853
C  -10.833834125256 -10.720799231457  2.683992996529
C  -11.740562118278 -9.777158540570  1.909082947516
O  -12.190456710536 -8.697933041428  2.717374830836
C  -13.203591132364 -7.917896751566  2.089221341632
C  -13.313608329022 -6.538276922774  2.725616476832
C  -12.176117868699 -5.606624075927  2.313259969836
C  -10.794024766525 -6.161904240119  2.623602975144
O  -9.737489839340 -5.254206409756  2.336470585036
C  -9.711931903992 -4.144626622306  3.228311279001
C  -8.368106193762 -3.429334095218  3.236539610766
C  -8.281315033145 -2.345595467032  4.309560579142
C  -9.259851957538 -1.198846383779  4.095701298826
O  -9.265332062281 -0.302769448863  5.200232106074
C  -10.203569077411  0.753054087869  5.057602768150
C  -9.714600919353  1.854230159212  4.130590891773
C  -8.357652030233  2.384045052876  4.563434057584
C  -7.898104274195  3.565278362287  3.723763577240
O  -7.753645198857  3.235152804664  2.348046856182
C  -7.304439098927  4.351177988254  1.582842864060
C  -7.072071514786  4.006387377484  0.120416046430
C  -6.584407065672  5.192414881197 -0.700637829310
C  -6.314968101617  4.806727612633 -2.148192780662
O  -5.300423332287  3.832555717176 -2.274620340367
H  -5.735202435037  1.951702961655 -2.284676902506
H  -6.934312869036 -0.316582173593 -3.524132513826
H  -5.493727865443  0.433405689379 -4.189691350629
H  -8.116057185879  1.921237964894 -3.642238338270
H  -6.691943357979  2.622614432034 -4.366487412082
H  -6.938765115887  0.981813015679 -6.305724497429
H  -8.266292838357  2.112921755554 -6.148410570709
H  -9.210033568683 -0.116393372756 -6.538847787699
H  -8.303053920386 -0.792883736799 -5.188854526431
H  -10.367273013294 -1.505116387945 -4.276294182974
H  -11.200422760028 -0.756751215346 -5.636959267013
H  -11.613581467547  0.004997090862 -2.698515887955
H  -12.405500586456  0.768922159302 -4.043693947832
H  -12.726815377388 -2.174706936720 -3.251360475564
H  -13.447741220387 -1.447411404339 -4.671321049484
H  -13.964479625373 -0.518544090355 -1.804261316327
H  -15.096506686831 -1.448646189932 -2.790939736557
H  -15.146742373890  1.349878602664 -1.562966036262
H  -16.510499344684  0.471000644353 -2.250538788512
H  -16.891972378123  2.232745303055 -3.914443852041
H  -16.811163436342  2.992811572528 -2.337088722014
H  -15.508916286310  4.299308011941 -3.965340310174
H  -14.573020028247  2.888077477405 -4.418111757159
H  -13.524697288140  2.787920524647 -2.201039634631
H  -13.355256873304  4.431088296007 -2.809322190139
H  -14.564474051255  4.249124015978  0.720504678560
H  -13.567775376136  3.044353946019 -0.067071860745
H  -12.177243290490  4.963142240503 -1.058777402955
H  -13.142574227515  6.082684989961 -0.132920203985
H  -11.096119233895  5.685619970787  1.115928319573
H  -12.357720901149  4.838807037564  1.989801431370
H  -10.275129400599  3.428008071054  1.693370384388
H  -11.661225288326  2.688942856381  0.895400250366
H  -11.097287095580  1.952212381691 -1.300959117151
H  -9.493514571684  2.428536242103 -1.813761587402
H  -10.257593974168  0.768551679158  0.625008178293
H  -8.812937967205  1.736817419280  0.704314449771
H  -7.864167919465  0.634632957240 -1.270159978785
H  -9.357459509064 -0.214020981899 -1.572139562597
H  -7.755537483175 -0.572449877943  1.010639430852
H  -7.531563364534 -1.614372537379 -0.381684543453
H  -10.291243901042 -3.557845711851  0.362805527836
H  -8.569922040492 -3.592912749747  0.038269408430
H  -10.705616151154 -2.311151164501 -1.740244487519
H  -8.989008130088 -2.206612728969 -2.057477754543
H  -9.884850359898 -3.972948410333 -3.447717537881
H  -8.866035588320 -4.711725186367 -2.231704023242
H  -10.897931440621 -5.333121902980 -0.904425978976
H  -11.009552842977 -5.963075506244 -2.545848703100
H  -13.350521747829 -5.952397521151 -2.790506043683
H  -13.128294437040 -5.861201188697 -1.041310410647
H  -14.837342330663 -3.945696790102 -2.695637085265
H  -14.580027660209 -3.828504082857 -0.974960192007
H  -16.752727624409 -4.928281685303 -1.433480215557
H  -15.973225840975 -6.143778826035 -2.420036382812
H  -16.542195794254 -6.780645302639  0.076289667797
H  -15.153999473802 -5.794672398542  0.488496770018
H  -16.190157551119 -8.379726702372 -1.696283754364
H  -16.010040555696 -8.979539184831 -0.051095319704
H  -15.194489426327 -10.685770586435 -1.624557605203
H  -13.841193359566 -10.074476990295 -0.699255986891
H  -14.502372769008 -8.823356348915 -3.388577366696
H  -13.594409368673 -10.319736378685 -3.327009439023
H  -12.146315151746 -8.204783534825 -3.374508027190
H  -12.717095870980 -7.888526689935 -1.727007526033
H  -10.588409724971 -8.095795528184 -0.866452895393
H  -10.008767299138 -8.292215204335 -2.520324102578
H  -9.014770070796 -10.500767248489 -1.931107023984
H  -9.659033914359 -10.376967751369 -0.319744093705
H  -7.261709473057 -9.789081897251 -0.306565989084
H  -7.506186601415 -8.557507687507 -1.518190080018
H  -8.761636000164 -7.144631108380  0.007889729438
H  -7.382984964130 -7.698434478965  0.936419525992
H  -7.754282102113 -9.072490135335  2.735959603762
H  -8.282124951177 -10.353303533162  1.644621143043
H  -9.129191106138 -10.664822803138  4.017028417583
H  -9.993391597883 -9.146787934136  3.872336011007
H  -11.425653319679 -11.193089169061  3.478136568317
H  -10.491227073454 -11.538578864052  2.038360523498
H  -12.617959613566 -10.300698394052  1.511814646522
H  -11.208021070110 -9.338727664858  1.059401435941
H  -12.974105606081 -7.830390369024  1.021061791157
H  -14.141616482781 -8.479647499324  2.173167645280
H  -13.309148476317 -6.661787935421  3.814620817048
H  -14.281019018476 -6.080550959761  2.484886993236
H  -12.237848714923 -5.393282856637  1.240395361831
H  -12.298646823810 -4.635359272541  2.805540604313
H  -10.715209948414 -6.462954192922  3.673891423443
H  -10.600706316713 -7.066634230494  2.036104519905
H  -9.949569210488 -4.505345532697  4.235247851885
H  -10.513515642014 -3.460326446324  2.933260234162
H  -7.576785143444 -4.175031921152  3.379599148086
H  -8.182142086548 -2.993465004944  2.250036697104
H  -8.471995963465 -2.788124458654  5.293843171783
H  -7.264815917748 -1.938471918377  4.370070556671
H  -9.013874422481 -0.641156480531  3.186331484999
H  -10.279848803522 -1.577053015098  3.974135071512
H  -11.161214720493  0.332311715988  4.729437264719
H  -10.368167863665  1.153509477152  6.064602670581
H  -9.646966141146  1.482142707557  3.103007072901
H  -10.442308241917  2.674612951181  4.098918763170
H  -8.393961426676  2.662992465445  5.623824617684
H  -7.619257929213  1.576735819821  4.496888286148
H  -8.619218271609  4.387215267296  3.795082071263
H  -6.934564560601  3.948547037880  4.080107141209
H  -6.379787721951  4.724955646027  2.036387957648
H  -8.051770613719  5.147189845062  1.674829036333
H  -6.356524492486  3.179599351928  0.049261393113
H  -8.001489419638  3.622019849415 -0.309848921333
H  -5.668970971707  5.596392448781 -0.253828053887
H  -7.321420833500  6.003507437642 -0.650193298038
H  -7.220995394950  4.388500637191 -2.602228874370
H  -6.039868964432  5.678845796256 -2.756211163585
H  -4.468820055611  4.167397628986 -1.868185758313
