60
pair_id=pair_3bc7f7b5c70bdd45dac4 start=2 nco_site=1 oh_site=2 attack_angle_deg=105.000000
O   6.618264355100  0.143538449800 -1.688772552200
C   5.816657291800  0.056693374400 -0.854090093000
N   5.168305460200 -0.077203069200  0.131054582300
C   3.854011754200 -0.052937900900  0.673130753600
C   3.208913872000  1.324955326500  0.505592565300
C   1.816479531100  1.330099716500  1.127972203900
C   0.915975883400  0.265277561500  0.494741769900
C   1.575300343600 -1.106616265900  0.646848687500
C   2.969563288100 -1.121854323200  0.026592232800
C  -0.471566668400  0.318794788400  1.144508880200
C  -1.531720426600 -0.614503699000  0.548593741600
C  -2.815889084600 -0.520079738200  1.377955627300
C  -3.901240110600 -1.443307734100  0.834788234600
C  -4.215431931400 -1.131031945700 -0.633160601400
C  -2.931460693800 -1.192021334500 -1.468816570500
C  -1.850234206100 -0.273002050300 -0.907919417400
N  -4.855865099800  0.132195613900 -0.765308668800
C  -4.715970678600  1.296887398100 -0.579600605500
O  -4.781695726700  2.452432031500 -0.482541701300
H   3.969545924300 -0.273189232200  1.741047915900
H   3.836149805100  2.083749329600  0.977052012800
H   3.142337409400  1.557949739500 -0.559917029900
H   1.898918572600  1.140301456600  2.200766512800
H   1.366995500400  2.316357678000  0.998420659100
H   0.822792117200  0.492510003800 -0.571700099600
H   1.645879490100 -1.356204628000  1.708123695400
H   0.969045823200 -1.872128855900  0.161264418100
H   2.901208685400 -0.921631752800 -1.045633449400
H   3.428518868200 -2.103936366600  0.155965136700
H  -0.843348377200  1.344547930400  1.077407088700
H  -0.362537387200  0.081373795700  2.206152281500
H  -1.171999744600 -1.647583393000  0.596726238500
H  -2.605958818300 -0.783409642800  2.416616017800
H  -3.176915567100  0.511493151300  1.366280192100
H  -4.810035213800 -1.341777785600  1.430961935200
H  -3.567918939900 -2.481073930500  0.896756635300
H  -4.936516961100 -1.862698729600 -1.016941204600
H  -2.574708747800 -2.223980911300 -1.464940239600
H  -3.156569269900 -0.914536712900 -2.500403691300
H  -0.955847295700 -0.371101252100 -1.524329068000
H  -2.184966647800  0.765627050600 -0.969067221100
C   6.432013425609  0.526153653726  4.058496460921
C   7.080226648522 -0.845131623188  3.847407003035
C   8.000986453973 -1.176834984428  5.021728834306
C   5.980321586017 -1.922884888069  3.744409933827
O   5.056317556040 -1.688438579667  2.716388499827
C   7.926084043930 -0.845599411516  2.557273625524
O   7.202038328660 -0.535893836339  1.386347315270
H   5.998125263432  0.580021545909  5.053862830320
H   5.628939488733  0.683850906294  3.340819279714
H   7.167530956542  1.323165990754  3.960868379557
H   7.431652034638 -1.224267825392  5.946595653177
H   8.488360365649 -2.137203436735  4.869534241588
H   8.769229343041 -0.414328454901  5.128999530733
H   5.399797997712 -1.944612321715  4.671004224393
H   6.458380499460 -2.906762516367  3.615675089250
H   5.562995509223 -1.555237203131  1.899918079544
H   8.767468700848 -0.148357885534  2.676832646944
H   8.335845833315 -1.844797206192  2.386179288474
H   6.867885114097  0.364943094638  1.466056240696
