214
pair_id=pair_5122a20522ecb6d42280 start=4 nco_site=2 oh_site=2 attack_angle_deg=105.000000
O   6.071138798300  2.480874245000 -0.539966886600
C   5.281563264000  1.703290642200 -0.203729312400
N   4.583194840700  0.895553337000  0.323028101100
C   3.469566272400  0.097992287700  0.217823463600
C   3.141003666300 -0.720825069600  1.291776942100
C   2.027239290200 -1.535897111400  1.217504870200
C   1.230376574900 -1.552900220000  0.080976745700
C   0.000129982500 -2.417918638600 -0.002577497200
C  -1.230253681400 -1.553071685200 -0.084299228600
C  -2.021435998300 -1.526209840700 -1.224619472200
C  -3.134787785500 -0.710465627800 -1.297435226200
C  -3.468763238200  0.098981255200 -0.218056518800
N  -4.581846364100  0.897438299100 -0.321975352000
C  -5.282652338400  1.701065266500  0.207899688400
O  -6.073694902800  2.476057311700  0.546553031600
C  -2.680498724400  0.084975519400  0.931153113200
C  -1.572915706700 -0.735626567500  0.987803746500
C   1.567638803400 -0.726117648500 -0.985674162700
C   2.675451036000  0.094047662700 -0.927432521900
H   3.761402694000 -0.710428411900  2.174324307200
H   1.779230559000 -2.170944736200  2.055913696000
H   0.058433977900 -3.056457871800 -0.886664495400
H  -0.057740878700 -3.058561817600  0.879976911700
H  -1.769229849800 -2.154027086400 -2.067217719300
H  -3.750781892300 -0.692421148900 -2.182945547900
H  -2.943609239700  0.716629811900  1.766859046600
H  -0.960209384700 -0.742612630800  1.877475508100
H   0.950329509800 -0.725172817000 -1.872181069100
H   2.934211927200  0.733133578500 -1.758835180200
O  -5.606345178461  3.580476074013  2.305147260557
C  -5.013524563371  4.776343793650  1.841255399532
C  -3.610955680568  4.998950069984  2.393169225202
C  -3.002291614602  6.338240300109  1.992652394381
C  -3.729550911956  7.509754503951  2.636573383392
O  -3.799380393873  7.365240881836  4.049563785843
C  -4.406671150718  8.485321444298  4.686717912516
C  -4.419411164942  8.331817487699  6.198907917733
C  -5.016595629610  9.527045997890  6.929494848669
C  -4.877055688854  9.365189300610  8.434298809243
O  -3.509886201892  9.232356291543  8.812103948095
C  -3.349791015917  8.779994883233  10.149892762979
C  -1.883461540853  8.612672936173  10.521152230031
C  -1.126068731640  7.748769555824  9.521604701578
C  -1.753084328778  6.372334371291  9.358564205869
O  -1.944988837815  5.724621519916  10.610827594591
C  -2.899963588109  4.672657631351  10.547883647561
C  -2.400496455057  3.444734854078  9.799903404135
C  -3.475133378898  2.377576425246  9.611359914442
C  -4.527626693800  2.828127263017  8.609958039280
O  -3.933618488664  3.154193191289  7.358256500015
C  -4.597333858645  4.197825907114  6.658905236624
C  -6.090482951157  3.949250294114  6.430783562084
C  -6.603080170772  4.638745999833  5.173664247898
C  -8.117869452894  4.563473345176  5.045244264490
O  -8.787579633160  5.364432314864  6.016259199675
C  -9.275907552635  6.599512852334  5.498339185040
C  -8.194510579182  7.523510205184  4.958934765339
C  -8.739344852927  8.799184501853  4.325543986615
C  -9.414500427173  9.713265669106  5.332804777778
O  -8.543882471950  10.074041797219  6.399431804187
C  -9.109800221836  11.094580136888  7.216779235914
C  -8.367678319601  11.288286461326  8.525608773676
C  -9.010139542750  12.343891418460  9.423991908643
C  -10.477333524321  12.041570604362  9.720559304375
O  -11.347469219671  12.398271364984  8.644429034548
C  -11.879592058813  13.709190660959  8.806659822024
C  -12.614375520668  14.236942022577  7.580179707425
C  -11.701465786245  14.371140177789  6.361578961411
C  -11.569732533093  13.060017692781  5.603345628625
O  -12.755282582772  12.744367609890  4.885156121160
C  -12.662096215548  11.490917197301  4.215526801651
C  -13.907503759773  11.190366011461  3.397151400947
C  -13.900688531508  9.801602493991  2.765270704113
C  -13.724979365463  8.701102336731  3.805475221565
O  -14.505952289187  8.917075235814  4.969766953884
C  -15.895189536154  8.709335947695  4.771805928695
C  -16.692517342666  8.932306089927  6.049738439718
C  -16.618818874636  10.367578743536  6.558567860314
C  -15.235801326646  10.733349972817  7.074874804554
O  -14.803189655525  9.843799756041  8.095666724892
C  -13.612514424246  10.279934612564  8.744938360449
C  -12.915981672273  9.126653977782  9.455740250239
C  -12.188005825641  8.193272236924  8.490986833153
C  -13.090484018401  7.609409084857  7.414201285323
O  -12.439895495498  6.660478325430  6.578204036083
C  -12.133721485678  5.449066512455  7.260801451317
C  -11.869701854609  4.290206453334  6.309530910403
C  -11.705909761962  2.955495361865  7.034178804938
C  -10.491928079827  2.907166263841  7.951902367806
O  -10.472066896679  1.717467971930  8.731130008888
C  -9.379452049338  1.661096240238  9.635790270285
C  -8.074296717841  1.273447962153  8.959529971438
C  -8.212685461342 -0.028648482023  8.188322657443
C  -6.892853757162 -0.500456471160  7.599268940936
O  -6.342873779010  0.429748543510  6.674775317834
C  -5.116068186005 -0.040541332111  6.121050702128
C  -4.543136189497  0.902391759284  5.075013623968
C  -3.236765197613  0.401706337122  4.473917740636
C  -2.711970471859  1.340951259111  3.397266992247
O  -3.594784828696  1.464620321378  2.301985899044
H  -4.942056245404  2.846916106459  2.272674078105
H  -5.682538770955  5.594742471620  2.129952683700
H  -5.003806510533  4.758134000913  0.744259969629
H  -3.646552207754  4.935510085217  3.485857902938
H  -2.966146619140  4.171693221813  2.072281623230
H  -2.999415421367  6.438755929812  0.900483600497
H  -1.949579581855  6.369013297693  2.300292581119
H  -3.227801353354  8.458612856920  2.412793748851
H  -4.754212280195  7.593009569194  2.259386671975
H  -5.423604829426  8.595509456647  4.296038282836
H  -3.850938356627  9.384158233428  4.397781465315
H  -4.960383217891  7.418839764452  6.469511541086
H  -3.393749909676  8.166882616124  6.548968343913
H  -6.066779026118  9.664203537950  6.643483849585
H  -4.497757228347  10.440387650565  6.617221415311
H  -5.414053184591  8.470728538850  8.769125057177
H  -5.294302525827  10.220670603011  8.977624554209
H  -3.879320593506  7.825644432772  10.244060428115
H  -3.853161451479  9.493029811235  10.813408765783
H  -1.412913482315  9.601579505008  10.587017972872
H  -1.801946250169  8.171142555166  11.522316675612
H  -0.083825181815  7.634687148247  9.844741219432
H  -1.088058846935  8.257592722329  8.550145219793
H  -2.726825117021  6.457412766679  8.863542760316
H  -1.132066031745  5.724241717230  8.729670737359
H  -3.158397685287  4.411957438011  11.580439915321
H  -3.813940916161  5.073116562996  10.097777560089
H  -2.029827434622  3.743798520772  8.813775803738
H  -1.530040169864  3.036591023787  10.327883324662
H  -3.018193000970  1.450664228570  9.243679166470
H  -3.934792690227  2.128220557968  10.575275034727
H  -5.272478147859  2.045601299796  8.426046307415
H  -5.067432402458  3.704658833472  8.982571130356
H  -4.419842532478  5.138908464425  7.191384957658
H  -4.077788390397  4.291816893092  5.698946705816
H  -6.670583174846  4.279956969057  7.300270720659
H  -6.276432648149  2.871628226748  6.355752577619
H  -6.124083831574  4.192075194910  4.294992013353
H  -6.281346678677  5.684272573827  5.183777886494
H  -8.455391461357  3.530466473530  5.188397926021
H  -8.458400752450  4.860709645381  4.046129423698
H  -9.826245702260  7.082623947775  6.313129012543
H  -10.015383109089  6.373208431450  4.722387360328
H  -7.508485592075  7.779506443510  5.773579309630
H  -7.593884443705  6.983436025664  4.218816545036
H  -7.920864085172  9.352173656645  3.848130633809
H  -9.437231207724  8.543174411040  3.518563490983
H  -10.294901338803  9.229940746749  5.770042024568
H  -9.760733790754  10.635313715004  4.851803880235
H  -9.116266149311  12.024913186701  6.638919269498
H  -10.152417008647  10.824776439303  7.415739902324
H  -7.323159885404  11.544574139719  8.312397000179
H  -8.329387617057  10.326578187002  9.050411601979
H  -8.442961006553  12.426825847265  10.360540363603
H  -8.940898151383  13.327413491261  8.946556666406
H  -10.823753411235  12.555238641584  10.625714651730
H  -10.605942530678  10.971132082295  9.909955533043
H  -11.050820514111  14.378754090299  9.061668385265
H  -12.545689284242  13.682347470840  9.677498972482
H  -13.072291600053  15.206238526073  7.819387335069
H  -13.445744858808  13.567760002434  7.332361687958
H  -10.717912032157  14.737817272558  6.680591322643
H  -12.093333143985  15.125828470071  5.668165811654
H  -10.742711372887  13.092716288236  4.884243496473
H  -11.379135518042  12.239683347060  6.301058950734
H  -12.503450233940  10.722044581997  4.979125385749
H  -11.773009789204  11.501198214194  3.575831982684
H  -14.032831824385  11.966822787667  2.632800958121
H  -14.779797988731  11.291335648504  4.051480408468
H  -14.836219995166  9.643336862893  2.214672177706
H  -13.105601881578  9.735752607476  2.012194245074
H  -12.683803127581  8.653421455276  4.145721393623
H  -13.958989167933  7.707982901139  3.404377385514
H  -16.026840943250  7.686935319815  4.398249126543
H  -16.238888605676  9.388230821676  3.985029967482
H  -17.738903688928  8.639685316013  5.890946014612
H  -16.305615643239  8.263834932015  6.827231287857
H  -17.339206803904  10.505750078547  7.374608098419
H  -16.926896824200  11.060163482031  5.765851790930
H  -15.214123941034  11.754167303003  7.473879209594
H  -14.495399941495  10.680056127784  6.270669714530
H  -12.945976551722  10.730320790906  8.000515527725
H  -13.899101509689  11.074233792744  9.444551894730
H  -13.671563179238  8.560757557719  10.012573386494
H  -12.217029144604  9.507126424469  10.210758968508
H  -11.361297648340  8.725722747290  8.007857778005
H  -11.715056038495  7.379520906653  9.052089459720
H  -13.974412335341  7.134392397571  7.853494526312
H  -13.469417739246  8.400659802600  6.757395111245
H  -12.971220985506  5.205086456108  7.923809146187
H  -11.262476224870  5.634881998099  7.896617965560
H  -12.693853393419  4.236349913765  5.588008909546
H  -10.976114806605  4.504154222042  5.714988185615
H  -12.602281250874  2.749423460641  7.630044455216
H  -11.641921875742  2.128522843549  6.316750413236
H  -9.564060565848  2.969689303958  7.374295944542
H  -10.495992152680  3.754230685474  8.645211475152
H  -9.303992665537  2.621818188235  10.158400200237
H  -9.647832996159  0.915123999425  10.392759996272
H  -7.751450288790  2.066124532312  8.276605321070
H  -7.273558012183  1.182529274171  9.703935985545
H  -8.633447312054 -0.800686636951  8.844428383312
H  -8.946104797089  0.106199043754  7.385007894329
H  -6.154698429117 -0.656244322854  8.393956840438
H  -7.015385020246 -1.458068621752  7.079413719215
H  -5.296673241326 -1.028574591781  5.683369139701
H  -4.404873403550 -0.178655436489  6.943076979476
H  -5.283954614104  1.064012328084  4.283991615097
H  -4.383773119723  1.885763255574  5.526973681115
H  -3.388182511620 -0.595810890915  4.046258683150
H  -2.490973281661  0.273261703000  5.268210806128
H  -2.569076060093  2.346336772075  3.810460882630
H  -1.731363808584  1.019967123123  3.021320490944
H  -3.757340007408  0.577679497540  1.907291113093
