219
pair_id=pair_d2c043f5b3c834e8f59f start=3 nco_site=2 oh_site=1 attack_angle_deg=105.000000
C   0.284581330700 -2.856296821600 -1.075228802200
C   0.162525852300 -1.597457455400 -0.204947230400
C   0.845005092100 -1.904537770700  1.131145514700
C  -1.328669048700 -1.291252660800 -0.005722197300
C  -1.570475083400  0.087872243400  0.610820554000
C  -0.957110448900  1.181183157800 -0.269036073900
C   0.549683356000  0.994266183800 -0.497159448500
C   1.002261202900  1.956948628000 -1.604047402300
C   1.307902346100  1.391971275300  0.789954740500
N   2.703572888200  1.171113099200  0.732383851000
C   3.569168631800  0.422084370500  0.420855653800
O   4.549802891200 -0.154504117100  0.185714036600
C   0.831914196600 -0.441038993400 -0.968894226600
N  -2.963431143600  0.322177330700  0.785377568700
C  -4.013442667400  0.395831636900  0.235484889300
O  -5.116375984200  0.510373170000 -0.104212560000
H  -0.200973184600 -3.701335647600 -0.592771820900
H  -0.180392270100 -2.708228461400 -2.047427195000
H   1.331183276900 -3.106678504200 -1.231501354200
H   0.669336818000 -1.138529666000  1.878580217000
H   1.919144116400 -2.004976794700  0.992809095200
H   0.466878515000 -2.844074041600  1.529162011100
H  -1.834031280800 -1.321260360500 -0.974603031900
H  -1.780892848400 -2.056062502900  0.628522771700
H  -1.151102782700  0.129873374500  1.620567689400
H  -1.463600897200  1.156635133100 -1.237165534300
H  -1.148305840500  2.158375955300  0.179489575800
H   0.772454559600  2.985326617500 -1.333946347600
H   2.075584442100  1.874781849200 -1.759270064200
H   0.502011787900  1.732699420800 -2.543044673500
H   0.909588571900  0.871441133300  1.663883790100
H   1.176321145700  2.466024633200  0.954683369000
H   0.487257832900 -0.500634134700 -2.004285460000
H   1.911225245100 -0.607683746400 -0.987976068100
O  -4.058905159450  0.799083693748  2.904814569288
C  -4.082698165406  1.010127526983  4.301820631047
C  -5.242367921758  0.302364948652  4.991458278766
C  -5.348041921867  0.611518397724  6.480700081868
C  -5.733264183890  2.061577974119  6.735488011773
O  -6.922344199618  2.413706462394  6.039502045765
C  -7.350065156048  3.743068166453  6.320927265141
C  -8.651320277661  4.076268168481  5.609479971480
C  -9.175642119399  5.472561674392  5.916740108330
C  -10.539423118684  5.689316091945  5.281741798303
O  -11.482984187774  4.730883407577  5.751457707927
C  -12.671228135847  4.700425399703  4.972298638704
C  -13.650140793532  3.647097071292  5.470477117239
C  -13.007276976477  2.272949030434  5.602807968477
C  -12.393550543782  1.795796910282  4.295149641710
O  -13.318832254080  1.868524291231  3.216684362804
C  -12.684854442896  1.861742841716  1.943659271190
C  -12.095952249869  0.509645542908  1.567144583426
C  -11.294618976664  0.543752543510  0.268714001692
C  -9.990536656368  1.305986119386  0.447356741837
O  -9.208376015464  0.739713385733  1.493053353521
C  -8.426822294915  1.687345653644  2.207158663827
C  -7.506241555199  2.533773439362  1.324314027737
C  -6.257850094508  2.990875783974  2.066665302596
C  -5.437728859042  3.991513909895  1.264874348544
O  -6.087598775633  5.254639903023  1.141997100761
C  -5.571361541193  6.249833620583  2.022461645671
C  -5.717889845861  5.916015051502  3.499364577189
C  -5.079639916246  6.945394678407  4.425856771791
C  -5.773770176160  8.294913091358  4.371662984748
O  -7.158596238276  8.200182447671  4.686482194565
C  -7.750385052008  9.486555266483  4.844118476813
C  -9.266574487993  9.444584101607  4.870761155941
C  -9.898889002569  10.830829290628  4.983247317488
C  -9.443730358311  11.770808916020  3.869121118706
O  -8.145609205915  12.321556280720  4.101471570755
C  -8.216271029644  13.586562295346  4.751663568960
C  -6.871098146239  14.107837771637  5.243052924340
C  -6.239465352997  13.199710766029  6.297920907757
C  -5.461253459177  12.054835910611  5.669461345513
O  -4.243249569626  12.501244257004  5.087957968854
C  -3.532689050819  11.445610154063  4.448453902236
C  -2.201177152813  11.916561630513  3.885968315489
C  -1.466101681675  10.846746083561  3.084006647419
C  -2.314652715568  10.307350597514  1.938138680416
O  -3.005639741693  11.329865827448  1.238754828047
C  -2.164774783261  12.136436173024  0.429610399034
C  -2.948910916078  13.206873360901 -0.317285557654
C  -3.619188577633  14.214429925164  0.610024563008
C  -4.757521820052  13.602315413972  1.411655553727
O  -5.735196470700  13.008503438364  0.567849766899
C  -6.910987421736  12.616261513474  1.270086684197
C  -7.703210924507  11.578179377120  0.485726547843
C  -7.068162735924  10.190361806706  0.536477436066
C  -5.630266103881  10.162345962372  0.039991209881
O  -5.070554790241  8.855949029169 -0.011745733959
C  -5.650606907603  8.052314704589 -1.033954983421
C  -4.783977361230  6.856222670210 -1.402595348650
C  -5.319089821147  6.087400432047 -2.609228325037
C  -6.677231329206  5.443493532750 -2.366042566319
O  -7.213150488926  4.885747762392 -3.559643219339
C  -8.502881824926  4.319951562949 -3.381141379155
C  -8.458948183300  2.948551013760 -2.726649219193
C  -7.546169969593  1.999247040636 -3.484953389441
C  -7.574421182778  0.587847922152 -2.920420676305
O  -7.139059447439  0.530981624066 -1.567766179257
C  -7.155691939534 -0.802969659943 -1.064643120473
C  -6.625888547439 -0.902069057606  0.356995065376
C  -6.633554880520 -2.325667261218  0.897288229659
C  -6.054227648951 -2.401206753417  2.302792091463
O  -4.702659758296 -1.995814112165  2.359510184670
H  -4.239304013298 -0.154950214391  2.710597999938
H  -4.136251256722  2.093373088672  4.458069302824
H  -3.121817299859  0.685179526196  4.720081039573
H  -6.176762040347  0.592403830068  4.499477212786
H  -5.148242632174 -0.778205037987  4.828331317539
H  -4.403939016571  0.368773572198  6.983381882342
H  -6.106850981633 -0.036673314283  6.936604020290
H  -5.893251900860  2.246857153279  7.804243210395
H  -4.941392442820  2.743214117357  6.407702327754
H  -6.553466845270  4.432633728314  6.022839115155
H  -7.471101967198  3.839495704996  7.405492893677
H  -8.519118083102  3.955104922825  4.529087702976
H  -9.409045630321  3.334085164038  5.886506147582
H  -8.459177953536  6.232418694800  5.580888867058
H  -9.261123563690  5.598170001345  7.002012622125
H  -10.467873159187  5.595087743726  4.192459189083
H  -10.937311171250  6.687114946893  5.499063195210
H  -12.383949878748  4.495329748637  3.935254337863
H  -13.116140165051  5.702324041625  4.989805423382
H  -14.055307842595  3.961223713837  6.440453451050
H  -14.508145442420  3.585831637769  4.789302663662
H  -13.755724141361  1.543907351203  5.937514845254
H  -12.239273455843  2.299975822941  6.386082783367
H  -11.521928855543  2.409232427321  4.041322561527
H  -12.041781299257  0.760873342346  4.375064692666
H  -13.437793504286  2.168351203021  1.208812823220
H  -11.921858287346  2.646696917344  1.942489708058
H  -11.440514445825  0.160180902027  2.371854465009
H  -12.906252687482 -0.227315533806  1.509352721309
H  -11.059748300842 -0.479118139111 -0.050223600401
H  -11.896154890678  0.982536545896 -0.536407438559
H  -9.382728524382  1.287343070253 -0.464342664907
H  -10.184925273061  2.357337730919  0.682752509374
H  -9.100334715210  2.311021323376  2.805559768893
H  -7.835798813401  1.107388536840  2.924531068412
H  -8.046097805947  3.403532291965  0.931929190938
H  -7.212340053249  1.956545301742  0.440059628366
H  -5.648054170682  2.116757180520  2.321778601107
H  -6.553043011647  3.432214765059  3.023128364087
H  -5.271460067204  3.612290246048  0.249954954940
H  -4.443195684193  4.146504541149  1.700102010323
H  -6.097049774256  7.180509954030  1.782369337476
H  -4.519845218167  6.417862598346  1.765131684691
H  -6.782685133219  5.816059880323  3.736071252826
H  -5.273374058093  4.933739638532  3.693651945606
H  -5.110497372025  6.579789345900  5.459787059676
H  -4.016109085478  7.055974464500  4.179933340508
H  -5.688343531215  8.738205361915  3.373625206430
H  -5.313992732151  8.998403659003  5.075309009148
H  -7.363116198377  9.925009470184  5.770004149477
H  -7.409329754377  10.116065011586  4.015367663282
H  -9.594209313627  8.801085963333  5.695822948111
H  -9.617775694150  8.948452829695  3.958468184782
H  -10.993099869857  10.739296816313  4.979123733233
H  -9.641660669983  11.277146028691  5.950040678416
H  -10.146669309450  12.600254786857  3.723986106795
H  -9.409294943911  11.230960207936  2.917476535845
H  -8.910197541422  13.492699484000  5.594197007728
H  -8.670463651245  14.289528861252  4.042922455257
H  -6.998346870634  15.122646522965  5.643570211032
H  -6.182337855863  14.205812712852  4.396646700030
H  -7.020809395060  12.819114509230  6.967433374311
H  -5.550101297489  13.769489767740  6.933582239764
H  -5.215123517195  11.282759768604  6.408013683973
H  -6.053046496269  11.588378290633  4.876821559244
H  -4.174406920448  11.053352925879  3.652370435244
H  -3.381876807708  10.636925305881  5.171692671856
H  -1.575142016664  12.289603861015  4.705567822024
H  -2.387270265101  12.788483320109  3.250074880758
H  -0.531125206820  11.261619209739  2.687616501974
H  -1.162420883359  10.025001266573  3.744413014815
H  -3.086403327241  9.626332389594  2.315900611068
H  -1.723568159953  9.727542163859  1.219551522541
H  -1.641124214704  11.472292442657 -0.268159626674
H  -1.405616980805  12.597162776508  1.069496436747
H  -2.289066794001  13.724581043266 -1.026052675557
H  -3.721189115670  12.719288130388 -0.922998995103
H  -4.022090715848  15.046538625475  0.019062013814
H  -2.873026640749  14.656749709012  1.281277110433
H  -5.252666516416  14.351298826008  2.040621390679
H  -4.385441090158  12.813482749970  2.072775233149
H  -6.623943904183  12.219249121691  2.250531980393
H  -7.498138522892  13.525003918137  1.448813483822
H  -7.769323029444  11.912666664162 -0.555884107790
H  -8.738069799674  11.531952200678  0.846666072148
H  -7.095076535857  9.804129270282  1.561398757688
H  -7.670910144867  9.487789638232 -0.049864439734
H  -5.546118172863  10.614053464394 -0.954407167325
H  -4.983823056313  10.756477841047  0.695873448108
H  -5.814748491073  8.681058990650 -1.916139231119
H  -6.634430407183  7.724896159795 -0.683602650521
H  -3.764044456231  7.210409060596 -1.594972981617
H  -4.701789550898  6.187222689485 -0.540367593753
H  -5.402197788621  6.763802323685 -3.467468905831
H  -4.609492510412  5.312170881831 -2.922552907414
H  -6.605680890766  4.657800645671 -1.607067167383
H  -7.395902385851  6.181933653888 -1.996677883046
H  -9.123348176334  5.026495048318 -2.817563763469
H  -8.945194078479  4.246264326267 -4.381359427506
H  -8.112882957206  3.033795610998 -1.691311468679
H  -9.469054850394  2.524897715599 -2.665074870222
H  -7.826338464277  1.989828687306 -4.545601813946
H  -6.521154149068  2.386350304543 -3.455019852387
H  -8.591277294400  0.181547532066 -2.960366163488
H  -6.935110917962 -0.082231205200 -3.507413641624
H  -6.557755018559 -1.427980439806 -1.737120645674
H  -8.186468390300 -1.171023743708 -1.115993145215
H  -5.611795098802 -0.489106498036  0.398532600693
H  -7.225962773753 -0.260843183613  1.009240634479
H  -6.056601058986 -2.974846447596  0.229043690249
H  -7.657194270377 -2.720052841793  0.882205352287
H  -6.615599626794 -1.744930388670  2.978151898684
H  -6.133291782007 -3.413703109759  2.720591094233
H  -4.164128274877 -2.557069916073  1.756312083613
