395
pair_id=pair_d0340fb5d58cddfcd8e1 start=4 nco_site=2 oh_site=2 attack_angle_deg=105.000000
O   6.618264355100  0.143538449800 -1.688772552200
C   5.816657291800  0.056693374400 -0.854090093000
N   5.168305460200 -0.077203069200  0.131054582300
C   3.854011754200 -0.052937900900  0.673130753600
C   3.208913872000  1.324955326500  0.505592565300
C   1.816479531100  1.330099716500  1.127972203900
C   0.915975883400  0.265277561500  0.494741769900
C   1.575300343600 -1.106616265900  0.646848687500
C   2.969563288100 -1.121854323200  0.026592232800
C  -0.471566668400  0.318794788400  1.144508880200
C  -1.531720426600 -0.614503699000  0.548593741600
C  -2.815889084600 -0.520079738200  1.377955627300
C  -3.901240110600 -1.443307734100  0.834788234600
C  -4.215431931400 -1.131031945700 -0.633160601400
C  -2.931460693800 -1.192021334500 -1.468816570500
C  -1.850234206100 -0.273002050300 -0.907919417400
N  -4.855865099800  0.132195613900 -0.765308668800
C  -4.715970678600  1.296887398100 -0.579600605500
O  -4.781695726700  2.452432031500 -0.482541701300
H   3.969545924300 -0.273189232200  1.741047915900
H   3.836149805100  2.083749329600  0.977052012800
H   3.142337409400  1.557949739500 -0.559917029900
H   1.898918572600  1.140301456600  2.200766512800
H   1.366995500400  2.316357678000  0.998420659100
H   0.822792117200  0.492510003800 -0.571700099600
H   1.645879490100 -1.356204628000  1.708123695400
H   0.969045823200 -1.872128855900  0.161264418100
H   2.901208685400 -0.921631752800 -1.045633449400
H   3.428518868200 -2.103936366600  0.155965136700
H  -0.843348377200  1.344547930400  1.077407088700
H  -0.362537387200  0.081373795700  2.206152281500
H  -1.171999744600 -1.647583393000  0.596726238500
H  -2.605958818300 -0.783409642800  2.416616017800
H  -3.176915567100  0.511493151300  1.366280192100
H  -4.810035213800 -1.341777785600  1.430961935200
H  -3.567918939900 -2.481073930500  0.896756635300
H  -4.936516961100 -1.862698729600 -1.016941204600
H  -2.574708747800 -2.223980911300 -1.464940239600
H  -3.156569269900 -0.914536712900 -2.500403691300
H  -0.955847295700 -0.371101252100 -1.524329068000
H  -2.184966647800  0.765627050600 -0.969067221100
O  -8.480053497233  1.144379341629  11.809463302489
C  -8.974669028702  0.880464385031  13.099816522439
C  -9.678054027227  2.076091582242  13.740687822625
C  -11.041225262518  2.429718250411  13.122351727846
C  -10.979879480430  3.310126649742  11.872585019325
O  -10.546916208664  2.646954300327  10.689656790310
C  -11.568266045629  1.867870864244  10.078211270083
C  -11.012312019798  0.949138251139  9.000532686707
C  -10.304317349043  1.724523370255  7.898287148747
C  -9.752289610476  0.830694934857  6.799271324547
O  -9.045955693927  1.559491148831  5.803908253181
C  -9.904723612236  2.319330310849  4.950605564176
C  -9.437102866671  3.756519761947  4.772801533558
C  -10.348830962398  4.547800399705  3.837552105172
C  -9.758568740633  5.879090734992  3.394125061625
O  -9.669995568541  6.849528907352  4.431227027559
C  -9.129896055455  8.072558271917  3.932646174467
C  -9.062307838412  9.186474348179  4.968594332075
C  -8.306029260588  10.402150862521  4.444734480397
C  -8.060516357252  11.459917704469  5.508624472714
O  -9.266791911806  11.992020496771  6.044526594801
C  -9.053445855018  13.221743315980  6.731646932857
C  -10.262113316820  13.649243126057  7.551946815500
C  -10.511970320387  12.722169151715  8.736307892802
C  -10.868912178444  11.306371542961  8.317154476903
O  -11.023235363840  10.438557285425  9.433756160624
C  -11.248364668304  9.091036736910  9.035582232214
C  -11.198810959521  8.131994655106  10.213959147266
C  -11.372391283077  6.671967298901  9.809437827274
C  -10.334938433445  6.250524188581  8.779125935277
O  -9.027067038692  6.676970905131  9.126122931651
C  -8.405726779561  5.893059915331  10.133501017984
C  -8.121952163124  4.476507874614  9.657477098420
C  -7.052545168992  3.741957941870  10.453924920474
C  -6.632600848289  2.482666279084  9.711163065620
O  -6.275135855486  2.801722619548  8.371379724997
C  -5.988225044545  1.659357181535  7.574116363514
C  -5.679315633214  2.052067914377  6.137864002280
C  -5.349757728013  0.868131409273  5.234408097134
C  -6.542526425869 -0.039075273414  4.977901358800
O  -6.240466781867 -1.039138486164  4.012071179590
C  -7.330877983231 -1.918921866684  3.765690986206
C  -7.090114466838 -2.744844508986  2.512616245227
C  -5.817998190119 -3.574562656782  2.605719191323
C  -5.445882793120 -4.167389092889  1.254940184148
O  -5.233908516054 -3.131071810595  0.303211136084
C  -5.164265494281 -3.582545396309 -1.044750735856
C  -5.219460337244 -2.397196253156 -1.996392338295
C  -6.464280632241 -1.559980587926 -1.730957179433
C  -6.485681676862 -0.238188728792 -2.479583571755
O  -7.589979728948  0.563770648961 -2.083269358395
C  -7.642696996923  1.823582600636 -2.735873463366
C  -6.399318344938  2.684392552989 -2.520811835346
C  -6.646941542909  4.170646058164 -2.763505363907
C  -7.441459343434  4.786597658736 -1.622540352442
O  -6.693359334041  4.779912017792 -0.406673867100
C  -7.506939270353  4.702330579558  0.759774861869
C  -7.609172150447  3.285359814302  1.304100610630
C  -6.252588217296  2.694396568428  1.676588221908
C  -5.440724211855  3.615707711967  2.577830777973
O  -6.170297881877  4.020739532902  3.732769897375
C  -5.663847969153  5.225799093551  4.304228381413
C  -6.470020422965  5.672470682864  5.515781357333
C  -6.124013081122  7.081599447317  5.979937049761
C  -6.902159054428  7.496475482402  7.225376648532
O  -7.027127559795  8.911841703654  7.339549579060
C  -7.351217460909  9.329146361282  8.659492880825
C  -6.098543432294  9.521395003006  9.495016840498
C  -5.163317620858  10.509207427032  8.814549033476
C  -3.855238310836  10.727306066983  9.554317384991
O  -3.011203470806  11.644121652854  8.864298274519
C  -1.853457336548  12.011623048107  9.599797726841
C  -2.178665931717  12.777900565771  10.875515402714
C  -3.166359903250  13.907239599569  10.606276117786
C  -3.730447002388  14.532532853545  11.873879564274
O  -4.597252707360  15.634439663902  11.637288802174
C  -5.693458608411  15.314499169167  10.789071937528
C  -6.721972833226  16.431845496788  10.718567408626
C  -7.837999831886  16.158515743366  9.712712500087
C  -7.308924836815  16.013790174032  8.291484810439
O  -6.543250560991  14.824136695735  8.127529545161
C  -5.767422128818  14.828176581069  6.932882623546
C  -4.966611185438  13.546028377738  6.769583416358
C  -4.151701280390  13.513955918247  5.483287928393
C  -3.363061106403  12.224199206295  5.320355635701
O  -2.643277317932  12.173442046630  4.088856341520
C  -1.729903308765  11.085581695213  4.057532028015
C  -1.124820826966  10.823440285229  2.684709150792
C  -0.383394208591  12.024235461665  2.108519412322
C  -1.334188801103  13.079267928194  1.569327261994
O  -2.089579898859  12.598685291305  0.458865366662
C  -3.118518166303  13.501830077900  0.046549341953
C  -4.508119473871  13.021131374500  0.446406679868
C  -4.574814538343  12.650557256590  1.916540675722
C  -5.952011072781  12.184534327903  2.363118171648
O  -6.543210657215  11.219053745284  1.509321956615
C  -5.801805273580  10.009375684294  1.390261916744
C  -6.517583863955  9.027727977892  0.472696299422
C  -5.693097424930  7.793337773425  0.118890723347
C  -4.440346798067  8.114176242828 -0.690592237169
O  -3.867225942171  6.984875279092 -1.338066176436
C  -3.667446083625  5.886815299659 -0.459047905868
C  -2.756270221384  4.815660784310 -1.040664554798
C  -2.669141065989  3.581904764020 -0.144734653087
C  -2.001956938004  3.863004306236  1.194346204389
O  -2.164458845322  2.795720938460  2.121714462468
C  -1.332386810182  2.955350724853  3.269986919197
C  -1.901737782230  2.264131390933  4.497638999962
C  -0.956933052845  2.297388425336  5.691438087696
C  -1.619434000819  1.740796748692  6.941025233485
O  -2.786107017355  2.465413819666  7.303939058765
C  -2.496291073277  3.677605190011  7.993917963277
C  -3.750308988872  4.498444682741  8.251776505226
C  -3.517662234569  5.724198156438  9.126779199200
C  -2.650883396063  6.764012699976  8.434991096868
O  -3.204778782284  7.154284168101  7.185730345967
C  -2.596314119685  8.313005368357  6.637573272410
C  -1.136766156442  8.109479710137  6.266973608738
C  -0.925069643800  6.923000613174  5.331502640371
C  -1.691507994478  7.031660440297  4.015696670033
O  -1.168933769408  6.165391621463  3.014614634192
C  -0.077602761403  6.748157917816  2.306965629658
C  -0.539595375223  7.566716178026  1.110220492260
C   0.572853933748  8.375288941457  0.455195177858
C   0.061252726137  9.076558521928 -0.792329130309
O  -0.397213740032  8.118204679294 -1.740365931610
C  -1.324590645235  8.641045355695 -2.682892037264
C  -1.832959562668  7.534533346704 -3.592804769866
C  -0.694257851267  6.881937434409 -4.363194663840
C  -1.094094152585  5.541333871546 -4.960627785035
O  -1.326337449885  4.575000588323 -3.943178760933
C  -1.632292317959  3.282204048313 -4.455382329721
C  -3.096561339583  3.129935226530 -4.835132821076
C  -3.461908312806  1.728855122242 -5.318783020176
C  -3.128832030486  0.631356842271 -4.312509155117
O  -3.673462044139  0.859735072578 -3.031553621233
H  -9.172251833215  1.653225051144  11.323420694285
H  -8.115866440216  0.555462811598  13.701086940532
H  -9.651827374354  0.018994907078  13.040386793745
H  -9.809173155296  1.870624601738  14.812090814556
H  -9.017921879500  2.949028877949  13.693861409391
H  -11.591621268250  1.509001949999  12.905352027006
H  -11.647910842892  2.948792856577  13.877774364282
H  -10.290500137170  4.144030301937  12.041833820314
H  -11.955584296210  3.760215555285  11.653082238748
H  -12.085833264703  1.293199929464  10.853629805427
H  -12.299504358198  2.563504989874  9.651713669929
H  -11.813089799170  0.336786785850  8.567926522041
H  -10.309864357013  0.241147968249  9.455133512347
H  -9.481011647579  2.306136504482  8.323043554660
H  -10.986456680554  2.469010782699  7.474438610308
H  -9.055853131253  0.096617687109  7.218858270968
H  -10.547421545902  0.256422336456  6.311103572358
H  -9.936442004860  1.801825284694  3.984659661743
H  -10.928273182693  2.296555983864  5.339592995879
H  -8.412950331554  3.745485572153  4.384717904814
H  -9.370294373520  4.250303766623  5.748628192863
H  -11.316118019526  4.722058208357  4.322148319447
H  -10.571126113218  3.933466529858  2.955590594196
H  -10.358730926742  6.317723669386  2.587654750277
H  -8.749553252256  5.730319911827  2.997090496397
H  -9.733138441410  8.391414448569  3.075240224417
H  -8.128012197773  7.854500283995  3.546011422379
H  -8.575818272698  8.810562036913  5.872350010356
H  -10.071175871245  9.470812371817  5.287420345030
H  -8.859029347656  10.846827306080  3.609512005049
H  -7.349817492465  10.072124370112  4.022049364042
H  -7.475440465691  12.293264535518  5.102530185509
H  -7.488496762091  11.038624322134  6.342505425410
H  -8.799619327523  13.974407073287  5.975937607878
H  -8.178096030057  13.103911731205  7.380695885897
H  -10.134213634105  14.681127544598  7.903433271167
H  -11.144839640953  13.660981182535  6.902981150826
H  -11.310880643306  13.114792277121  9.377109030545
H  -9.620879867341  12.687699883037  9.373660410941
H  -11.799211462716  11.291730884148  7.738683465031
H  -10.085595108109  10.891688748976  7.673753424551
H  -10.481255047398  8.830231927880  8.298393379760
H  -12.217201128543  9.039991672135  8.526750528516
H  -11.953332905576  8.426909859079  10.953042242921
H  -10.233346023351  8.259226297152  10.716934274655
H  -11.294362153648  6.031320952424  10.695419720316
H  -12.382972165515  6.506920967712  9.415629622430
H  -10.336699786499  5.168867365790  8.608466213493
H  -10.553917537587  6.704471453729  7.805349779797
H  -9.019182353323  5.909193364069  11.039881196681
H  -7.468572528725  6.401360948482  10.387046378868
H  -9.045074554673  3.889823217005  9.651050313108
H  -7.802328481147  4.525208516831  8.609291300585
H  -6.180941790227  4.394565152430  10.577486721336
H  -7.405534172803  3.513041057151  11.466562965326
H  -7.456583667568  1.762163564563  9.674199923636
H  -5.782668002603  1.985276288908  10.192357939595
H  -6.851133690869  0.987839581252  7.619375355518
H  -5.138007637943  1.135603133127  8.025130432648
H  -6.533081976416  2.602491729896  5.726684555843
H  -4.848003266979  2.766093240052  6.146508186287
H  -4.530382908985  0.281516079892  5.664447445393
H  -4.974063309764  1.220641293370  4.266832582060
H  -6.869136951688 -0.536424618779  5.897055957924
H  -7.391872932238  0.544155744071  4.604116759817
H  -8.245485073668 -1.320550855664  3.676599992263
H  -7.444945944368 -2.562884981797  4.644550067508
H  -7.949806715093 -3.389163260174  2.291331457106
H  -6.998971592892 -2.064333207737  1.658057114805
H  -5.923834530733 -4.354857759608  3.369120304357
H  -5.001604149756 -2.926789665350  2.946438509051
H  -4.532205171211 -4.770449766944  1.308290153033
H  -6.249120053562 -4.815811951706  0.888849329935
H  -6.009810612037 -4.255264177729 -1.224652074754
H  -4.244583903556 -4.166431510499 -1.165032058949
H  -5.187273749119 -2.721565437134 -3.043475654951
H  -4.329777548836 -1.774671041729 -1.845148345348
H  -7.368790018681 -2.133201304358 -1.963099203749
H  -6.529656899733 -1.349816922695 -0.656981535001
H  -6.533104532768 -0.393381789435 -3.562788151406
H  -5.569087380760  0.320074343340 -2.268111110147
H  -8.533218390343  2.324550025351 -2.342734586715
H  -7.833548585961  1.655215953186 -3.801785344181
H  -6.047976127992  2.549812150972 -1.492455035349
H  -5.588948919678  2.316310661885 -3.159743451612
H  -5.694367501560  4.707758347357 -2.848989841681
H  -7.162054563540  4.310665379484 -3.721566218741
H  -7.717175102001  5.825954356258 -1.836313609886
H  -8.375348659313  4.238676682393 -1.462382650943
H  -8.492351982351  5.127946560496  0.534842365962
H  -7.055381989550  5.365363713076  1.504892588059
H  -8.259267365972  3.277934586712  2.185845051603
H  -8.105952333564  2.645733821268  0.564427866456
H  -5.683852221580  2.472678144914  0.766737556752
H  -6.394339164016  1.728733717180  2.177743852736
H  -4.512082297820  3.140446017391  2.915077861098
H  -5.143539954292  4.515332023586  2.028766752513
H  -5.688733066019  6.001517942203  3.531105130888
H  -4.611764901944  5.068469793055  4.566746130050
H  -7.535225069157  5.635747192318  5.266543378676
H  -6.342871898837  4.957724615445  6.335912914070
H  -6.332737535707  7.794958864844  5.175046821785
H  -5.049182009868  7.170241214399  6.165418945839
H  -6.432233750435  7.096994127211  8.130147320226
H  -7.920227485765  7.090289223527  7.198719902455
H  -7.898658255080  10.274191271575  8.571684143807
H  -8.044606490206  8.603908372237  9.100126515630
H  -5.584879542002  8.562872728772  9.625870727940
H  -6.350686146833  9.867043343990  10.505025627748
H  -4.952308368673  10.169400033783  7.794211630678
H  -5.672970207456  11.471693271156  8.696317209558
H  -4.058887600529  11.109827320267  10.558608298833
H  -3.309923004851  9.786178786964  9.676483514856
H  -1.251662457172  12.633114051873  8.926825019025
H  -1.268929254636  11.106093335089  9.799867254958
H  -1.265430532126  13.173057277384  11.337604569349
H  -2.600967236240  12.096663756313  11.622648511042
H  -2.697576090017  14.681092504921  9.988128408304
H  -3.986996016612  13.513180882412  9.997906986564
H  -4.279997505098  13.792264402676  12.465974472434
H  -2.919469876351  14.899818623995  12.512446965792
H  -6.152605997659  14.383847095773  11.140430962053
H  -5.290339874841  15.121599083360  9.790293604481
H  -6.208064223075  17.363258235356  10.454850003865
H  -7.133038363733  16.602917487022  11.720835493732
H  -8.589106116809  16.958000062407  9.756313236773
H  -8.362707556366  15.237341101477  9.989517922310
H  -6.676328785377  16.870897460911  8.035881437358
H  -8.121918238944  15.986972170277  7.557069831698
H  -6.445102885161  14.972903503063  6.084561913494
H  -5.098918711456  15.695606457645  6.961268789960
H  -5.649333347349  12.690819299590  6.795135002955
H  -4.306991322802  13.412164726563  7.633807396832
H  -4.818890487509  13.647845487066  4.626100836443
H  -3.464564630224  14.366834601781  5.448684463374
H  -2.649669843884  12.107631497199  6.144377916574
H  -4.031904777678  11.356752742238  5.354193299196
H  -2.265079968818  10.200284788663  4.416800113032
H  -0.941384546957  11.305359708480  4.786075766037
H  -1.916086582735  10.529034403233  1.986301627215
H  -0.446526255805  9.963725352554  2.753673375685
H   0.273071940220  11.704679709405  1.289495865208
H   0.276045273028  12.451430639031  2.873922778683
H  -2.029341874171  13.394866508346  2.353308072156
H  -0.791587687584  13.972416028347  1.237571321791
H  -3.035162978206  13.615310482157 -1.041118001344
H  -2.909771819379  14.487774426650  0.477407060810
H  -5.263667949385  13.782101223194  0.215588815698
H  -4.781234012239  12.148924315033 -0.157870912659
H  -3.836983117207  11.867121803736  2.120426039105
H  -4.252849545024  13.506804274457  2.520308309541
H  -5.922590655834  11.770454591400  3.376743611627
H  -6.649341793643  13.029931069652  2.388736522729
H  -4.810780467462  10.248480849513  0.994583517853
H  -5.651763635034  9.583238117856  2.388083585099
H  -6.796091782853  9.554822627351 -0.447045336213
H  -7.469790911517  8.739261223356  0.934467234715
H  -5.420021829611  7.256399648451  1.034125273242
H  -6.304518162838  7.092554138580 -0.460522910762
H  -3.666557412462  8.574735871714 -0.066256310728
H  -4.673227807759  8.836949617213 -1.480637413937
H  -3.269028293676  6.274700441044  0.483781182044
H  -4.652001795809  5.459183452232 -0.243309085423
H  -1.757509641376  5.231972665024 -1.212133994889
H  -3.126933614624  4.543297714205 -2.035051307258
H  -3.676064292111  3.193313305223  0.037889417678
H  -2.133683021090  2.767846462116 -0.647732319567
H  -0.930745035800  4.050729168366  1.060495739818
H  -2.424914433227  4.755130197665  1.667848604053
H  -0.343697471783  2.556227450130  3.017609785367
H  -1.204397627136  4.026338760723  3.464907720050
H  -2.155732648480  1.228211399729  4.246276851560
H  -2.852658160554  2.735835862753  4.768440422684
H  -0.631579391688  3.327859282982  5.868957477571
H  -0.041362287278  1.739773664590  5.458011259658
H  -0.936631672819  1.725986296108  7.798596878226
H  -1.934306919757  0.704630844082  6.772524130073
H  -2.009483422156  3.414967813375  8.939536354890
H  -1.772498521295  4.251228786250  7.408395048494
H  -4.501807128862  3.843427528862  8.704654393037
H  -4.174610035117  4.810607692673  7.291857381999
H  -4.480729319048  6.183223014600  9.380949255026
H  -3.068919325009  5.422814649449  10.081208913844
H  -1.647596322257  6.367665913493  8.250315597778
H  -2.532950269274  7.657725489918  9.057879552436
H  -2.723613412554  9.136844611099  7.349255965121
H  -3.183651096293  8.579779044866  5.752371193426
H  -0.738751076065  9.019040457682  5.801201610703
H  -0.543822295157  7.975443927677  7.179662989968
H   0.143365486621  6.807402363854  5.114063177988
H  -1.213970445625  5.992763278252  5.832749088092
H  -1.668601758615  8.055492864082  3.630735614247
H  -2.749035355691  6.779497974320  4.154741416534
H   0.584490107012  5.935244417434  1.987907313820
H   0.505385194946  7.364942938372  2.999219712521
H  -0.988546451633  6.900936865753  0.365308600284
H  -1.355409400055  8.232125187124  1.410180667870
H   1.394944519113  7.705472241543  0.178912417002
H   0.997667660658  9.093421944329  1.166318867850
H  -0.769486320973  9.745372268791 -0.540348790108
H   0.836944700005  9.683589671186 -1.273318382602
H  -2.146154566033  9.111808776725 -2.131208197748
H  -0.818318156340  9.423760475674 -3.257987946220
H  -2.603440807507  7.903881514690 -4.280628988955
H  -2.325334150449  6.775318147512 -2.975064330863
H   0.145237261751  6.718675253497 -3.676866573951
H  -0.320972367452  7.566318440670 -5.135131585290
H  -0.307699784485  5.153368376354 -5.618652403467
H  -2.004100415678  5.642200919902 -5.560564953450
H  -1.359496607993  2.568603064364 -3.670533116435
H  -0.975148887922  3.068562410897 -5.305357075558
H  -3.710933654757  3.396713394494 -3.969435081456
H  -3.353705806468  3.872330645161 -5.599650655111
H  -2.954514955283  1.524364878603 -6.269801976850
H  -4.534974512435  1.689600981772 -5.543693304797
H  -3.513948356333 -0.338127318706 -4.653303953313
H  -2.043889405218  0.500667265216 -4.211583213785
H  -3.254325627144  1.650106968114 -2.621230132263
