369
pair_id=pair_19e6c3e0a0de52025d7a start=3 nco_site=2 oh_site=1 attack_angle_deg=105.000000
O   6.618264355100  0.143538449800 -1.688772552200
C   5.816657291800  0.056693374400 -0.854090093000
N   5.168305460200 -0.077203069200  0.131054582300
C   3.854011754200 -0.052937900900  0.673130753600
C   3.208913872000  1.324955326500  0.505592565300
C   1.816479531100  1.330099716500  1.127972203900
C   0.915975883400  0.265277561500  0.494741769900
C   1.575300343600 -1.106616265900  0.646848687500
C   2.969563288100 -1.121854323200  0.026592232800
C  -0.471566668400  0.318794788400  1.144508880200
C  -1.531720426600 -0.614503699000  0.548593741600
C  -2.815889084600 -0.520079738200  1.377955627300
C  -3.901240110600 -1.443307734100  0.834788234600
C  -4.215431931400 -1.131031945700 -0.633160601400
C  -2.931460693800 -1.192021334500 -1.468816570500
C  -1.850234206100 -0.273002050300 -0.907919417400
N  -4.855865099800  0.132195613900 -0.765308668800
C  -4.715970678600  1.296887398100 -0.579600605500
O  -4.781695726700  2.452432031500 -0.482541701300
H   3.969545924300 -0.273189232200  1.741047915900
H   3.836149805100  2.083749329600  0.977052012800
H   3.142337409400  1.557949739500 -0.559917029900
H   1.898918572600  1.140301456600  2.200766512800
H   1.366995500400  2.316357678000  0.998420659100
H   0.822792117200  0.492510003800 -0.571700099600
H   1.645879490100 -1.356204628000  1.708123695400
H   0.969045823200 -1.872128855900  0.161264418100
H   2.901208685400 -0.921631752800 -1.045633449400
H   3.428518868200 -2.103936366600  0.155965136700
H  -0.843348377200  1.344547930400  1.077407088700
H  -0.362537387200  0.081373795700  2.206152281500
H  -1.171999744600 -1.647583393000  0.596726238500
H  -2.605958818300 -0.783409642800  2.416616017800
H  -3.176915567100  0.511493151300  1.366280192100
H  -4.810035213800 -1.341777785600  1.430961935200
H  -3.567918939900 -2.481073930500  0.896756635300
H  -4.936516961100 -1.862698729600 -1.016941204600
H  -2.574708747800 -2.223980911300 -1.464940239600
H  -3.156569269900 -0.914536712900 -2.500403691300
H  -0.955847295700 -0.371101252100 -1.524329068000
H  -2.184966647800  0.765627050600 -0.969067221100
O  -7.079330011770  0.550011267808 -1.650445462758
C  -8.317268029907  0.158794264303 -2.211358710997
C  -8.743212162262  1.057427210553 -3.363685361841
C  -9.987326160633  0.579773687419 -4.096839232519
C  -10.345414392817  1.522265199842 -5.235190908602
O  -9.283817393053  1.691947148715 -6.165566349346
C  -9.081487729122  0.568259359942 -7.024742050659
C  -7.678134049820 -0.015557210332 -6.926351876764
C  -6.591447233046  0.981877046597 -7.324545930268
C  -6.446767242174  2.135591295763 -6.344935556427
O  -5.442986675246  3.061181908542 -6.739873788257
C  -4.975535475574  3.902457153378 -5.691302305880
C  -6.024884778656  4.871391962913 -5.136011276998
C  -6.894051830103  4.304052080204 -4.010683069948
C  -6.130832130999  4.054215979190 -2.716869646520
O  -6.965782114574  3.506351321343 -1.696242493749
C  -6.422864167861  3.688346452654 -0.390723679417
C  -7.297634960303  3.074575240916  0.690638335516
C  -6.748540206643  3.303068748085  2.095355049309
C  -7.713811286012  2.849374034863  3.181303997149
O  -7.294327386173  3.246855396962  4.482669741883
C  -8.072184678143  2.639356331360  5.509981639998
C  -7.749545834972  3.205365741847  6.884221650173
C  -8.476108506518  2.487822896416  8.015771720003
C  -8.109864640957  3.058965212656  9.377466041850
O  -8.497947210119  4.421846654624  9.498571600402
C  -7.879344009404  5.090567921567  10.590420193870
C  -6.432358360447  5.460087903100  10.298140994078
C  -6.324491472451  6.217645637084  8.983103468800
C  -4.896343994331  6.480988148706  8.535462668535
O  -4.849881407102  7.018576809413  7.216444108749
C  -3.515927665758  7.194208579059  6.748578647220
C  -3.453852534851  7.361818986372  5.238243941044
C  -2.031994634074  7.574171673912  4.725676965829
C  -1.534072594483  8.980702712354  5.018190042775
O  -2.318420951581  9.955097936563  4.342285959390
C  -1.891828579210  11.288821416684  4.607406047610
C  -2.765860275813  12.301556357024  3.886107517022
C  -2.314234737347  13.751739150591  4.055691558752
C  -1.020574263619  14.080636245815  3.327030520209
O  -0.590413171978  15.421681040403  3.552903221414
C   0.509857657760  15.781137487792  2.720026803989
C   1.303844067054  16.952325401801  3.280891367608
C   0.455457318222  18.208294444801  3.434595747012
C   0.149129669968  18.884022599060  2.104512801681
O  -0.453595203516  17.998733927245  1.167714136807
C  -0.902340406946  18.646506431104 -0.024003844716
C  -2.299039002139  18.196210693938 -0.425703321397
C  -3.339596088071  18.514783573151  0.645730805570
C  -3.196711218651  17.663108975292  1.898054630737
O  -4.088691577539  18.070098939459  2.929147671854
C  -4.041351850318  17.198916099213  4.053016146248
C  -4.956271426938  17.660562140962  5.176265455886
C  -4.936715186656  16.738192009105  6.395124864632
C  -5.340471523811  15.307742660351  6.061381665154
O  -5.529212536957  14.487576410620  7.210592412056
C  -6.805340549974  14.658849490542  7.823975272539
C  -7.809275901403  13.588987803447  7.413011767064
C  -8.046282962875  13.539117867305  5.909643676680
C  -9.074201629852  12.498103384706  5.490142464244
O  -9.247998685105  12.432108183942  4.073642846550
C  -8.632911371441  11.297536504719  3.482399174214
C  -7.115005161784  11.357215561275  3.513791162073
C  -6.570793591883  12.576313596405  2.766279992073
C  -6.541552028928  12.385494990688  1.256173182414
O  -5.969876587912  13.477653490493  0.545703459943
C  -4.643894313043  13.786684147653  0.960658129366
C  -3.796691568974  14.347866135239 -0.168951289459
C  -3.704524780937  13.391731564769 -1.349783118003
C  -3.137708752784  12.035691169855 -0.951259605644
O  -1.918809082760  12.158455975151 -0.229443200699
C  -1.496878216598  10.919884527804  0.333979539507
C  -0.193062713896  11.056745492188  1.101761586803
C   0.216161019366  9.790550978864  1.847037673737
C   0.599399467035  8.647815537997  0.919303106488
O  -0.449130038344  8.232743578520  0.058525287630
C  -1.493253077339  7.544116294411  0.737957243786
C  -2.490974457328  6.930304293175 -0.232530079656
C  -3.628318490146  6.180781152470  0.460419030763
C  -4.567797784607  7.094338166790  1.233881763911
O  -5.626478869082  6.379144093901  1.865319368522
C  -6.465253497481  7.241383856465  2.628265061204
C  -7.530909664542  6.488720001541  3.413995423839
C  -8.421159143081  7.411129182046  4.243675490310
C  -7.678659046718  8.082758972204  5.389572606778
O  -8.471278148647  9.063856014204  6.051140166715
C  -8.005561055974  9.357164033669  7.360686156636
C  -6.549198192564  9.795663861776  7.405058643894
C  -6.074004601621  10.176587257264  8.802182740578
C  -4.625908241755  10.636247139147  8.808072789868
O  -4.175891126141  10.962947743409  10.116146073470
C  -2.782934465109  11.222144340310  10.177523087310
C  -2.364299023718  12.427648775067  9.351684206367
C  -3.184478416447  13.659597647196  9.695328298266
C  -2.776216347493  14.863488085571  8.863394653594
O  -1.411193447906  15.205462538789  9.071417326300
C  -1.026241386472  16.404794797990  8.414103547727
C  -0.862001135364  16.248242583645  6.910200042447
C   0.283187453559  15.313937304431  6.530777408807
C   0.144459979935  13.901124264786  7.076099571137
O   1.086886474822  13.014953257839  6.481676132716
C   1.031099822043  11.697268632006  7.020669867451
C   1.790732798294  10.707632644977  6.150209277328
C   1.720698076978  9.272904811796  6.656204839962
C   2.420024927726  8.316820759423  5.702920448316
O   3.809860812948  8.607340633581  5.602977108311
C   4.400793631386  8.129709045102  4.398915707441
C   4.229189087213  9.098037841537  3.237365437248
C   4.929851279871  8.634768814422  1.966929232310
C   4.798690796420  9.651458678848  0.843607726887
O   3.443637984877  9.861431096942  0.471590875377
C   3.290139537830  10.890295269023 -0.501192517465
C   3.359204382477  12.288844982880  0.095094563507
C   2.998939361151  13.378298177841 -0.910631378089
C   3.059007334530  14.774445152941 -0.311924657453
O   2.722370169557  15.778425326693 -1.262766815118
C   2.584867728134  17.070039892315 -0.684489630715
C   3.915488657896  17.733498530146 -0.350046299754
C   3.760597288589  19.026727999873  0.449398040358
C   2.949656034233  20.099413426485 -0.263192273281
O   2.703309472343  21.219402916297  0.581504505734
C   1.888800538958  22.205100722678 -0.038209221511
C   1.532747743672  23.344454672572  0.907545877433
C   0.758634880207  22.866739799929  2.131735326876
C   1.662668290549  22.164994154786  3.135440825070
O   2.611205948759  23.056831638504  3.687327749421
H  -7.018605616055  1.533940627233 -1.652144216324
H  -8.207770427608 -0.879314539671 -2.545778874929
H  -9.074022346157  0.150771539111 -1.417323366142
H  -8.898850696539  2.076332935728 -2.991247451192
H  -7.915234184454  1.135379291116 -4.073659323738
H  -10.824395322640  0.489188210140 -3.393299961596
H  -9.817775765599 -0.430246212908 -4.486255454256
H  -11.237636156579  1.194222992004 -5.781163855136
H  -10.571771857079  2.519608596490 -4.841023488396
H  -9.276870934305  0.916149167848 -8.045890495520
H  -9.842292542298 -0.191027469192 -6.807995640732
H  -7.608803831844 -0.914929863957 -7.552406756363
H  -7.498999720935 -0.356595155315 -5.901021171626
H  -5.620879488442  0.478916620436 -7.416021024921
H  -6.802314218494  1.385160973753 -8.321265837639
H  -6.191574579238  1.755928242337 -5.350159468352
H  -7.390560271590  2.685453874501 -6.270269432972
H  -4.551784359449  3.269125637973 -4.905747642849
H  -4.131663875231  4.455826510993 -6.122523881928
H  -6.652928365835  5.206992724693 -5.970105261116
H  -5.531258641010  5.777924091878 -4.762718022334
H  -7.375776562118  3.376199424608 -4.324659647458
H  -7.725125081896  4.986339782528 -3.792873007427
H  -5.300464153706  3.357171310293 -2.869437747405
H  -5.696408159617  4.990628432769 -2.349871330576
H  -6.318731249234  4.765449883303 -0.220090900685
H  -5.417062150035  3.254562098017 -0.371301338878
H  -7.422767554168  2.001725730311  0.507554759288
H  -8.305297830770  3.498134530917  0.610972772545
H  -6.519887040117  4.364275409448  2.232992644722
H  -5.785748225632  2.794430329753  2.218634752215
H  -8.709530652100  3.274498410704  3.012910099149
H  -7.825095570507  1.759435455446  3.166214363599
H  -9.132593634768  2.781172795937  5.273499327762
H  -7.877188296667  1.561605930166  5.482184429848
H  -7.995921482911  4.272513642788  6.901058631087
H  -6.666733099805  3.157384751808  7.045591813280
H  -9.558400910075  2.573676352098  7.867640763085
H  -8.253048541733  1.414455353877  7.977621261133
H  -7.029640772184  2.984792357548  9.536239463733
H  -8.593868901694  2.504746345784  10.190420780031
H  -7.976965958137  4.466713635507  11.486513901268
H  -8.471593936771  5.995464309339  10.769099081439
H  -6.008023469475  6.056266718754  11.115459919957
H  -5.816011248080  4.556053098596  10.248273784657
H  -6.837730064165  5.652955394541  8.198353461743
H  -6.871879948264  7.161661591279  9.052521155958
H  -4.389895769170  7.176317562917  9.213930836351
H  -4.322279893736  5.547916360587  8.539319196625
H  -2.922534794081  6.325239264066  7.053940888821
H  -3.092334267743  8.062342833440  7.262927524881
H  -3.912347189780  6.482611101052  4.768539527533
H  -4.078567201914  8.212113045263  4.943337957861
H  -1.995996964981  7.410393478270  3.642851362972
H  -1.361473622025  6.825006013530  5.164127021512
H  -1.581228279285  9.196909686176  6.090268990157
H  -0.491490836172  9.107389715185  4.707779152777
H  -1.925592439873  11.452022288071  5.689648134292
H  -0.846065354554  11.379645350057  4.298431792679
H  -3.794484215230  12.175754214551  4.243674683207
H  -2.792663373634  12.045116242865  2.822574107216
H  -3.090552308721  14.433282702207  3.693697074271
H  -2.200364618857  13.980780552233  5.119365366867
H  -0.211613546459  13.418226674321  3.653015099827
H  -1.144222507793  13.943525242432  2.246945253878
H   0.096633539146  16.024723107394  1.734830387884
H   1.149987548819  14.899521572049  2.596724237546
H   1.718009578167  16.659829829727  4.253415673349
H   2.171585604443  17.166487306656  2.646597024956
H  -0.484500526832  17.933773109009  3.926415501911
H   0.946585688721  18.923682361958  4.107615654000
H   1.062931455988  19.271238674793  1.644148967011
H  -0.524587130892  19.736489685720  2.250214494867
H  -0.883555884679  19.731257104577  0.130138839678
H  -0.170879227111  18.428365219304 -0.810347831607
H  -2.287772305857  17.116388651916 -0.610474902686
H  -2.579844934549  18.661261728731 -1.379781620401
H  -4.355655877652  18.389254196572  0.251507041479
H  -3.267815325715  19.571563992671  0.926411522300
H  -2.180820939255  17.724963727932  2.298976106724
H  -3.382247453435  16.607886308106  1.672729285849
H  -3.002992826836  17.131624453097  4.396220620175
H  -4.336125345966  16.204621098100  3.704682859571
H  -5.977315600621  17.737499731774  4.785325448468
H  -4.680129566420  18.682807785706  5.461093557329
H  -3.940035810206  16.737771026853  6.847964123281
H  -5.601137916748  17.130837296361  7.173298654377
H  -4.575414486656  14.820598721754  5.449096990110
H  -6.257020499029  15.303848184127  5.464882908464
H  -6.640646758198  14.644972376300  8.908290713507
H  -7.184344828850  15.657374717552  7.581693109247
H  -7.447119998089  12.612438942256  7.749892251398
H  -8.763335842602  13.742852870566  7.932093219775
H  -8.368775023404  14.521340971843  5.546432761361
H  -7.098558066155  13.337758081495  5.402161316280
H  -8.804666460174  11.503794844960  5.861087329914
H  -10.053512178027  12.730862567789  5.923921599546
H  -9.019569068381  10.408409629986  3.993910450822
H  -8.994875182626  11.247292720518  2.449791447275
H  -6.780783079688  11.369911182246  4.556849081857
H  -6.684208090108  10.442858854746  3.087768540269
H  -5.561411553503  12.811298120827  3.118647263081
H  -7.172805159532  13.459860721121  3.006379640391
H  -7.554512582435  12.247753041942  0.862685002621
H  -5.981464124648  11.482600466509  0.988711180317
H  -4.716602752508  14.492111662159  1.796464679991
H  -4.184449205578  12.872914370288  1.349089385913
H  -4.220061367750  15.306140189484 -0.493739907723
H  -2.786286799321  14.567932304148  0.198509004918
H  -4.697509147957  13.264310318234 -1.798674265603
H  -3.072205495476  13.830528668473 -2.131661638314
H  -3.848699714795  11.492735867361 -0.319394032376
H  -2.948850495655  11.405036921784 -1.828173811463
H  -1.393914681292  10.191347289197 -0.478147472499
H  -2.294082790655  10.560563587983  0.993602674232
H   0.597464901521  11.359479960843  0.408514114859
H  -0.290949021309  11.891247574970  1.804004635090
H   1.052016412334  10.012437874348  2.522568631693
H  -0.608048674705  9.475847439475  2.493990093694
H   0.949203796075  7.771075759515  1.477177747630
H   1.428511303030  8.947970246751  0.269338264559
H  -1.043552257047  6.767168334238  1.365734278375
H  -1.990472193722  8.252485535268  1.406359431080
H  -2.900455866946  7.720004228652 -0.872441325133
H  -1.948547443792  6.262203244521 -0.912523236356
H  -3.219542876293  5.426473437448  1.142000474082
H  -4.211864783001  5.617717067243 -0.276173627985
H  -5.012994114860  7.842217746512  0.568315996314
H  -4.023533295129  7.642292982080  2.010052873419
H  -5.823449331166  7.817712798877  3.301362946861
H  -6.928176168895  7.957204142693  1.939884254530
H  -7.047927816407  5.752530898048  4.067054625668
H  -8.139583434628  5.906099880543  2.712473219894
H  -9.277905460383  6.861415385846  4.652102699166
H  -8.855519416091  8.179410838599  3.595522560905
H  -6.778114409816  8.587002419277  5.026289618993
H  -7.352984117972  7.335544201212  6.122569406746
H  -8.176463636393  8.470981689506  7.979729446777
H  -8.656271302287  10.139118395972  7.767150598216
H  -6.402604232026  10.638993030446  6.722068372036
H  -5.908440527376  8.997873901405  7.014988972673
H  -6.708108924099  10.965513212061  9.221048754297
H  -6.186046793993  9.329366325040  9.487086127589
H  -4.507239212298  11.515868246867  8.166634575473
H  -3.973143871467  9.854514406505  8.406467480373
H  -2.549841560638  11.386530854879  11.235838804997
H  -2.249592303117  10.312911611515  9.875700273636
H  -2.468211453921  12.205659608045  8.283825776655
H  -1.298956529790  12.642079011817  9.500022257057
H  -3.059287421735  13.894253756038  10.758457597604
H  -4.251747126343  13.443016980226  9.562736560024
H  -2.920013299518  14.650577267323  7.799509137260
H  -3.390637081121  15.737486669851  9.108664002733
H  -0.078087622017  16.718185004749  8.865450185411
H  -1.759968077676  17.179816354275  8.665558691807
H  -0.706270703286  17.232374103078  6.448771586778
H  -1.793847242939  15.873250414155  6.476847100261
H   1.239488593313  15.733029313746  6.863850066380
H   0.362973174386  15.245251101119  5.440649626191
H   0.286918793215  13.886516977904  8.162297374477
H  -0.856651590174  13.507670401577  6.875974337399
H  -0.018862558340  11.399925329140  7.111611178248
H   1.443838343299  11.727696813242  8.034977614264
H   2.837557842052  11.021321453153  6.066788704414
H   1.400821545470  10.761252114103  5.127783776173
H   2.190563175790  9.208912487008  7.644076058212
H   0.676130573465  8.976256215786  6.805981285035
H   2.323622047323  7.274910055398  6.030654001304
H   1.973731789731  8.381564278176  4.704910915433
H   5.465099691685  7.974383336551  4.609225109679
H   3.983720710405  7.143732353175  4.165611394636
H   3.166094367689  9.257573210557  3.032685684460
H   4.609717568583  10.081850211586  3.534692125901
H   4.503547025918  7.678839742924  1.642104846184
H   5.987194981636  8.433499201552  2.179155690813
H   5.343855400650  9.327846928368 -0.050942115466
H   5.223564953412  10.611668815407  1.152745841476
H   4.044111554540  10.752187547050 -1.283996739960
H   2.320315803320  10.731074128709 -0.985281574155
H   4.359563498480  12.476424231433  0.499434799177
H   2.689236545307  12.345053470934  0.960438465426
H   3.667549172303  13.327266660414 -1.777253435669
H   1.994616825003  13.203074280865 -1.313004125684
H   4.062464854785  14.981384499334  0.072915029907
H   2.367489256626  14.854192776132  0.533202405919
H   1.947921310721  16.984611981243  0.202117971104
H   2.025429127631  17.673239874217 -1.407460895361
H   4.462471128152  17.927578613591 -1.279588476904
H   4.541786161547  17.029515294721  0.208766302748
H   4.742022280310  19.440181520425  0.711320761578
H   3.283255453888  18.808225864302  1.410165232607
H   1.980256436387  19.706032960034 -0.583965924420
H   3.467653139823  20.449747091706 -1.162661140081
H   0.978189556266  21.712030634953 -0.396073717781
H   2.425690229768  22.572864005790 -0.920622782670
H   2.453967596726  23.834249118731  1.243586040475
H   0.960479400203  24.109939092032  0.366947471026
H   0.285710977270  23.718929868158  2.635350741848
H  -0.060613569045  22.208849513926  1.817437385428
H   2.202579402141  21.345359275901  2.645076312021
H   1.077151853950  21.726929560585  3.954683968241
H   3.236206525049  22.584822776641  4.285193396036
