17
        -25.83771866
 C         -2.2941206007        0.0655258563        0.5719677876
 C         -1.1395970684       -0.9006928293        0.3094223553
 O         -0.0000586497       -0.1270319647        0.0001730469
 C          1.1394461825       -0.9003994348       -0.3099126352
 C          2.2938893137        0.0660056481       -0.5721216859
 O          2.6332795798        0.7935839649        0.5770720333
 O         -2.6328923971        0.7942654358       -0.5766775207
 H         -2.0098869640        0.7423407548        1.3904002740
 H         -3.1862542336       -0.4921048442        0.8630364065
 H         -1.3868351473       -1.5595947301       -0.5357108351
 H         -0.9532771601       -1.5219929157        1.1974817434
 H          1.3869410946       -1.5598912523        0.5346912829
 H          0.9529112073       -1.5210059548       -1.1984132912
 H          2.0092313226        0.7436533488       -1.3897208216
 H          3.1858850406       -0.4913149532       -0.8642468206
 H          1.8199717860        1.1828244636        0.9213967774
 H         -1.8193478511        1.1836818632       -0.9202476909
