22
        -42.77757735
 C          0.1598833061        2.3237538694       -0.0009955894
 C         -0.9158829507        1.4775483410       -0.0008899065
 C         -0.7336396484        0.0810700279       -0.0005188325
 C          0.5832228952       -0.4497039408       -0.0003647565
 C          0.7833554394       -1.8444191060       -0.0002052647
 C         -0.2845733241       -2.6988702412       -0.0002323023
 C         -1.5905404798       -2.1994997011       -0.0003137815
 C         -1.8182148597       -0.8431164782       -0.0003428424
 N         -3.1214745371       -0.4178911081       -0.0001266616
 C         -3.8728466758        0.5068061143        0.0008305450
 O         -4.7550640044        1.2575635666        0.0015957020
 C          1.6747700977        0.4602969765       -0.0003980620
 C          1.4638638191        1.8202742240       -0.0006998778
 N          2.9395870003       -0.0719924949       -0.0001752864
 C          4.1104749453        0.1481261506        0.0007364326
 O          5.2677885794        0.1542405207        0.0014525545
 H          0.0101072506        3.3926306843       -0.0013582459
 H         -1.9174565768        1.8817777151       -0.0011535991
 H          1.7950460226       -2.2198351756       -0.0000808925
 H         -0.1290864373       -3.7668773664       -0.0001483629
 H         -2.4326800205       -2.8738401736       -0.0002612128
 H          2.3075909272        2.4943218110       -0.0007416558
