26
        -33.43569846
 C          0.9414098870        1.0599512841        0.3559400057
 C         -0.4661767076        1.3855130014       -0.1338622443
 C         -1.4336541511        0.2615470952        0.2351393104
 C         -0.9414173793       -1.0599532904       -0.3556595701
 C          0.4661582263       -1.3854763305        0.1341828338
 C          1.4336037314       -0.2615291057       -0.2349315175
 C          2.8540913447       -0.5777094548        0.2473224509
 O          3.7977096213        0.3925498326       -0.1384597763
 C         -2.8540344314        0.5777960722       -0.2473787843
 O         -3.7976767034       -0.3926585534        0.1378324525
 H          1.6303061629        1.8616512396        0.0841147618
 H          0.9388619344        0.9815540984        1.4455331505
 H         -0.4591170323        1.5108817813       -1.2191367273
 H         -0.8024027829        2.3263061308        0.3075089786
 H         -1.4572714841        0.1676395012        1.3290855272
 H         -0.9388442668       -0.9816216829       -1.4452577144
 H         -1.6303161295       -1.8616408820       -0.0837979768
 H          0.4591003129       -1.5107260482        1.2194714517
 H          0.8023909288       -2.3263115152       -0.3070860278
 H          1.4570089304       -0.1676130060       -1.3288816496
 H          3.1541950433       -1.5708124539       -0.1208216900
 H          2.8858130907       -0.5939239665        1.3393414470
 H          3.7847830444        0.4681363462       -1.0992541521
 H         -2.8854558150        0.5943121362       -1.3394018206
 H         -3.1543181840        1.5707730269        0.1209595548
 H         -3.7850241447       -0.4685385180        1.0986139321
