28
        -44.79407413
 C          0.6845400581       -1.4202878417       -0.0631272236
 C         -0.6843436080       -1.4202391624        0.0612808923
 C         -1.3910842550       -0.2176358086        0.1256987586
 C         -0.6912535072        0.9768066436        0.0614937990
 C          0.6914181451        0.9767964686       -0.0646289950
 C          1.3912925414       -0.2177154273       -0.1280646527
 O          2.7475640040       -0.3294762294       -0.2513697352
 C          3.5253195491        0.8492851833       -0.3152625108
 C          4.9845784040        0.4049991154       -0.4351302314
 O          5.4169733790       -0.2759220154        0.7109192820
 O         -2.7472702716       -0.3293056823        0.2497252401
 C         -3.5245551361        0.8497041683        0.3147211305
 C         -4.9833976836        0.4050620751        0.4385378282
 O         -5.4193941142       -0.2760022994       -0.7061335245
 H          1.2345664997       -2.3463490123       -0.1142737808
 H         -1.2343688320       -2.3462337501        0.1126361808
 H         -1.2018056493        1.9255798139        0.1081232002
 H          1.2019501659        1.9256238375       -0.1120553949
 H          3.3946989844        1.4435815467        0.5987561606
 H          3.2465013504        1.4546053693       -1.1873757292
 H          5.0875630644       -0.2297830051       -1.3265138978
 H          5.6306486695        1.2786877164       -0.5411077538
 H          4.7879390272       -0.9887654007        0.8782109880
 H         -3.2434118251        1.4556969812        1.1857014441
 H         -3.3962633501        1.4432566531       -0.6001697801
 H         -5.6287559609        1.2790263839        0.5460595250
 H         -5.0842491909       -0.2293079439        1.3305076658
 H         -4.7912134360       -0.9893951324       -0.8749626703
