16
        -21.78364399
 O          1.2961839163       -1.1859766176        0.2221102829
 C          1.5986254415        0.0708990822       -0.3486244657
 C          0.7654370220        1.2241451363        0.2157311603
 C         -0.7004788505        1.2379580304       -0.2280532645
 C         -1.5673902422        0.1195330838        0.3681854219
 O         -1.4437641271       -1.1109361905       -0.2889544951
 H          1.4365784307       -1.1382965448        1.1748627657
 H          2.6654873097        0.2916604491       -0.2046056464
 H          1.4122837735       -0.0444270290       -1.4187128285
 H          1.2323990780        2.1551988886       -0.1120378360
 H          0.8135841139        1.1980293613        1.3091823328
 H         -1.1341264515        2.1942933049        0.0711139451
 H         -0.7540377018        1.1694777436       -1.3161894420
 H         -2.6211608652        0.3956569041        0.2706826969
 H         -1.3430814043        0.0147338669        1.4424971065
 H         -0.5115837606       -1.3845172167       -0.2420099244
