10
        -15.45215477
 C         -0.6956287387        0.6139101522       -0.2983581726
 C          0.7164193611        0.6013954120        0.2939035461
 O          1.4368657541       -0.5240349964       -0.1357297356
 O         -1.4108402127       -0.5396708608        0.0851502234
 H         -1.2229821048        1.5287896791        0.0006362882
 H         -0.6397455190        0.5732205110       -1.3882453701
 H          0.6483245693        0.6102364552        1.3952869667
 H          1.2734122952        1.4836239337       -0.0277783284
 H          0.8181414275       -1.2669332757       -0.1649966813
 H         -1.5380068248       -0.5260713057        1.0410456899
