24
        -37.27234088
 O         -0.8923598445        1.9220111435        1.5516183872
 C         -1.4040484412        1.2658582647        0.7414397279
 N         -2.0976468278        0.7245915448       -0.0554346535
 C         -2.1885839778       -0.3802673176       -0.9390516866
 C         -1.9480066818       -1.7239004420       -0.2372275734
 C         -0.6001900889       -1.8129921784        0.4783805709
 C          0.5901441765       -1.8143763156       -0.4791659935
 C          1.9382552999       -1.7325253880        0.2367599948
 C          2.1849432543       -0.3909311500        0.9403125613
 N          2.1005615775        0.7153380871        0.0577876677
 C          1.4117015320        1.2587911724       -0.7417476826
 O          0.9049469167        1.9169131005       -1.5534067372
 H         -1.4817143080       -0.2393049001       -1.7639523802
 H         -3.2003572037       -0.3622927055       -1.3530965961
 H         -2.0219524726       -2.5111581112       -0.9897448118
 H         -2.7430238218       -1.8783814597        0.4953450102
 H         -0.5203395293       -0.9726621328        1.1707252396
 H         -0.5790988422       -2.7286187289        1.0739202193
 H          0.5138451656       -0.9720723999       -1.1695061463
 H          0.5651995035       -2.7284663708       -1.0769116594
 H          2.0083882339       -2.5211309835        0.9882260849
 H          2.7327111294       -1.8897084493       -0.4958509378
 H          1.4778366513       -0.2471476741        1.7645200801
 H          3.1962969609       -0.3784775511        1.3555904955
