21
        -34.10708518
 C         -0.0004591267        0.0007356470        0.5229208317
 C         -0.9920106631        0.7857562506        1.3780157886
 C         -2.0160194243        1.5458215469        0.5312103243
 N         -2.9001182485        0.6902673349       -0.1729200724
 C         -3.0273044164       -0.3617923524       -0.7065702539
 O         -3.3509818060       -1.3303049245       -1.2582308354
 C          0.9916859337       -0.7810378484        1.3803047333
 C          2.0150502167       -1.5441615605        0.5355241131
 N          2.8996619762       -0.6910797523       -0.1709471582
 C          3.0280013948        0.3596174117       -0.7069575446
 O          3.3524206785        1.3262875711       -1.2614594767
 H          0.5437521077        0.6947260145       -0.1231169247
 H         -0.5451279953       -0.6957901435       -0.1200046122
 H         -1.5198391106        0.1031717087        2.0478404511
 H         -0.4531945860        1.5120884301        1.9893421022
 H         -2.6392665682        2.1765018238        1.1718804184
 H         -1.5025009471        2.1898498242       -0.1921373732
 H          1.5200811932       -0.0959642013        2.0471357650
 H          0.4532793766       -1.5050256089        1.9947622981
 H          2.6378546278       -2.1737170653        1.1777293040
 H          1.5010471157       -2.1896370617       -0.1861962647
