41
        -57.42086264
 O          6.6182643551        0.1435384498       -1.6887725522
 C          5.8166572918        0.0566933744       -0.8540900930
 N          5.1683054602       -0.0772030692        0.1310545823
 C          3.8540117542       -0.0529379009        0.6731307536
 C          3.2089138720        1.3249553265        0.5055925653
 C          1.8164795311        1.3300997165        1.1279722039
 C          0.9159758834        0.2652775615        0.4947417699
 C          1.5753003436       -1.1066162659        0.6468486875
 C          2.9695632881       -1.1218543232        0.0265922328
 C         -0.4715666684        0.3187947884        1.1445088802
 C         -1.5317204266       -0.6145036990        0.5485937416
 C         -2.8158890846       -0.5200797382        1.3779556273
 C         -3.9012401106       -1.4433077341        0.8347882346
 C         -4.2154319314       -1.1310319457       -0.6331606014
 C         -2.9314606938       -1.1920213345       -1.4688165705
 C         -1.8502342061       -0.2730020503       -0.9079194174
 N         -4.8558650998        0.1321956139       -0.7653086688
 C         -4.7159706786        1.2968873981       -0.5796006055
 O         -4.7816957267        2.4524320315       -0.4825417013
 H          3.9695459243       -0.2731892322        1.7410479159
 H          3.8361498051        2.0837493296        0.9770520128
 H          3.1423374094        1.5579497395       -0.5599170299
 H          1.8989185726        1.1403014566        2.2007665128
 H          1.3669955004        2.3163576780        0.9984206591
 H          0.8227921172        0.4925100038       -0.5717000996
 H          1.6458794901       -1.3562046280        1.7081236954
 H          0.9690458232       -1.8721288559        0.1612644181
 H          2.9012086854       -0.9216317528       -1.0456334494
 H          3.4285188682       -2.1039363666        0.1559651367
 H         -0.8433483772        1.3445479304        1.0774070887
 H         -0.3625373872        0.0813737957        2.2061522815
 H         -1.1719997446       -1.6475833930        0.5967262385
 H         -2.6059588183       -0.7834096428        2.4166160178
 H         -3.1769155671        0.5114931513        1.3662801921
 H         -4.8100352138       -1.3417777856        1.4309619352
 H         -3.5679189399       -2.4810739305        0.8967566353
 H         -4.9365169611       -1.8626987296       -1.0169412046
 H         -2.5747087478       -2.2239809113       -1.4649402396
 H         -3.1565692699       -0.9145367129       -2.5004036913
 H         -0.9558472957       -0.3711012521       -1.5243290680
 H         -2.1849666478        0.7656270506       -0.9690672211
