354
0.000000000000 representative_seed=commercial_ptmg_2000_GFN-FF
O           -8.99223592062050       -3.30501528649795        1.48364259093575
C          -10.38773876804658       -3.42639825518072        1.35270352776835
C          -10.92985811806645       -2.85884336267645        0.04160516052390
C          -10.58519960067671       -3.68410455028993       -1.20970680772355
C           -9.20897152512040       -3.40249566525326       -1.81591782728724
O           -8.10915759056365       -3.93621819089456       -1.08644985012440
C           -7.91123269355119       -5.32735160474595       -1.30908334728990
C           -6.93288732658626       -5.92794893494247       -0.31075033061306
C           -5.56896985376751       -5.25457066159758       -0.37169777555292
C           -4.56636503609645       -5.84670843637813        0.60587887779798
O           -3.31377702020501       -5.17504604645656        0.57957177951517
C           -2.55056596090866       -5.45845861264239       -0.59522589030356
C           -1.99588609112222       -4.20400611946207       -1.25437392962463
C           -1.16061506047618       -4.52440278423724       -2.49200592019779
C           -0.34482295149810       -3.34322430038165       -2.99863360837456
O           -1.12628080846908       -2.29896310780681       -3.56785950412467
C           -0.29032228928886       -1.24245225234958       -4.03801835409380
C           -1.04779525480440       -0.11206816130738       -4.72141596202204
C           -0.13943777834813        1.07253570457964       -5.03102247824590
C           -0.89349638768022        2.28792314855660       -5.54603526264430
O           -1.57926599940333        2.03364896575119       -6.76689146185214
C           -1.94812910056694        3.23571969569468       -7.43684301518518
C           -2.92592363170127        2.99171287137460       -8.57741460121910
C           -4.29212165635602        2.53528001763260       -8.07763680558048
C           -4.24781264649679        1.18977334704484       -7.37391210365805
O           -5.51596728794929        0.81669335305407       -6.84825853459644
C           -5.44817547781380       -0.38907689609389       -6.09555694272082
C           -6.74599517329315       -0.67464440733918       -5.35738035598814
C           -6.68202420841848       -1.92725891512268       -4.49002107722023
C           -5.54210744339557       -1.85315026120200       -3.48475346037936
O           -5.49001072857634       -0.60042545724065       -2.82085753434301
C           -6.45942810190508       -0.44245727426937       -1.79583715609380
C           -6.21369727829848       -1.38825244921266       -0.63014665755889
C           -6.86936044224911       -0.96699171825436        0.67758774515345
C           -6.30752013860549       -1.79392906367559        1.82404925668655
O           -4.88575435403204       -1.73811205961415        1.81604393631741
C           -4.27993480644844       -2.58632837536631        2.78375114018739
C           -2.76309173640769       -2.53949908398264        2.68647983102315
C           -2.05420279488215       -3.42063128727199        3.71001739381699
C           -2.25899566353861       -4.90693327053008        3.46408420366504
O           -1.46142276717283       -5.69625220535351        4.33875413410615
C           -1.64704337234722       -7.09374568090167        4.14829269148099
C           -0.55594449150325       -7.88712197490779        4.84855612527147
C           -0.51249106341423       -7.61006747963273        6.34412718379099
C            0.74702241403620       -8.18438142299612        6.97524228647407
O            1.90371134324983       -7.60699035729414        6.38079711412418
C            3.11828853254566       -8.27876968755870        6.69574876113435
C            4.24224527943312       -7.77131149837176        5.80528359128923
C            3.86452387494607       -7.91842054647896        4.33673024562462
C            4.82895527517748       -7.23318375796231        3.38365321999865
O            4.35189634196764       -7.27436046262423        2.04559595651758
C            5.20556611451480       -6.62413000801272        1.11594782034647
C            5.45256788184448       -5.14961480009476        1.42904649278903
C            5.91416053126141       -4.34600421783287        0.21648344836473
C            4.76212057638083       -4.09317765494984       -0.74338046826391
O            3.77308553159664       -3.24807023398361       -0.15547506835223
C            2.45841496160220       -3.48406252585844       -0.64992704803044
C            1.64204701739153       -4.37716295852607        0.27227858465653
C            1.48454076824020       -3.79515309743073        1.67397785671143
C            0.98949289693649       -2.35473059301680        1.65706202689353
O           -0.20167781862603       -2.20264599688997        0.89012298923135
C           -0.39758572560186       -0.86143166433394        0.44516336868219
C           -1.65232844619736       -0.71327835183762       -0.40393111873063
C           -1.74336508729553        0.63387684588265       -1.10940306392940
C           -3.03012700281279        0.78819700674604       -1.91512146087309
O           -2.89441998665802        1.72864324921202       -2.97769315090522
C           -4.14737614259008        2.20253731111841       -3.45408904777922
C           -4.61918332648087        3.40158725245401       -2.65163701257168
C           -3.56430601396068        4.49697805239456       -2.68009734928396
C           -3.92704474659931        5.72158479743296       -1.85872371700056
O           -2.89773607090954        6.70520031848785       -1.90450755025105
C           -3.26211567805238        7.93491103530705       -1.29505543063376
C           -4.40574830334936        8.63842923886907       -2.01447464680441
C           -4.15793100734676        8.70314156646958       -3.51708395386675
C           -5.37597763500055        9.15030356064011       -4.31232792288513
O           -5.13680395828134        9.28432521996202       -5.70744801979148
C           -4.64157326940043        8.09425870055750       -6.30910356187819
C           -4.59502147227640        8.18329710604845       -7.82606773667662
C           -3.94498318986282        6.96583526219261       -8.47967802042903
C           -2.49564166051461        6.78543633671479       -8.04652753198022
O           -2.39295346987514        6.40485720839404       -6.67794122243183
C           -1.07426915686300        6.55653352377967       -6.16105310868344
C           -0.98199091413043        6.13447836183750       -4.70323865560497
C            0.42612436983668        6.25906457476772       -4.13635903790214
C            0.51378476800343        5.82388401584072       -2.68208734121660
O            1.84415151218510        5.88983314059332       -2.16922230839769
C            1.87394939791041        5.71602745282885       -0.75940774387812
C            3.27192033603329        5.51761505905643       -0.18862288160821
C            4.22390382941347        6.66655446152048       -0.50052475512624
C            4.72334988673111        6.62291866522365       -1.93456854478731
O            5.51606348734824        5.46444410140856       -2.18803024765879
C            5.84718716732473        5.30176760225888       -3.56943621014063
C            5.05343229999929        4.18072333183684       -4.22910421943101
C            3.56423928282560        4.31716568921681       -3.97073430057346
C            2.73160686063799        3.22837575957260       -4.62992991875005
O            3.22360555359942        1.91496449952502       -4.42130147161029
C            3.27402286547588        1.51799853994479       -3.05489949239080
C            3.79508105157877        0.09316506262682       -2.92744047692260
C            4.08374123868101       -0.33696556882771       -1.49205258964325
C            5.20587847327125        0.46122753081054       -0.83533353071739
O            5.73715319605888       -0.14682957821904        0.33557398282666
C            4.73257101038174       -0.52088474068634        1.26789270405714
C            5.28998709667516       -0.84859586131936        2.64549355414032
C            4.21716511095933       -1.38565948829901        3.59050754538259
C            3.14757572032096       -0.35564819920444        3.92568576051583
O            2.01951828777386       -0.92970227899870        4.57642448339293
C            1.14638580518121        0.06599166000088        5.10801494881767
C           -0.28901754858267       -0.42096665632831        5.21554698368685
C           -1.20406076941561        0.57351794548488        5.91741203456562
C           -2.65580489173293        0.12640263668163        5.86548189451397
O           -3.13028371878215       -0.01932765985527        4.53449173865497
C           -3.48767635766445        1.22115383677565        3.93203987614465
C           -3.86344830474182        1.05436723498036        2.46786532836489
C           -4.40785204168356        2.32227411404624        1.82113314094039
C           -3.34787201320288        3.40601102906553        1.70690855247406
O           -2.20824908955892        2.94509844729910        0.99375812982429
C           -1.32170248419775        3.98645838901690        0.61567767389906
C           -0.67191426386775        4.68426363527328        1.79884721723981
C            0.03992110203318        3.71506295249921        2.73777982505437
C            1.13976097932133        2.89937256853459        2.06281205039403
O            2.04750167395671        2.33649993677361        3.00347775158260
C            3.08597413740508        3.24275461996076        3.36633368811258
C            4.27935010525002        3.15624346821400        2.42609789616245
C            5.31609247023655        4.24953240305255        2.65032125556148
C            6.52384600666918        4.03371891598279        1.75333315440178
O            7.13763225533182        2.78360139727802        2.04977875698663
C            7.92440299563674        2.26350399581436        0.98571285102338
C            8.46173700961113        0.88886610970290        1.34956969470856
C            9.33236529401030        0.94510977558631        2.59651261300117
C            9.55138587763254       -0.42902512900489        3.21116419141501
O            8.34086512958094       -0.95117143478347        3.74496399840967
C            8.50940856971441       -2.20539087260945        4.39750555387490
C            8.50554408945675       -3.37837759416433        3.43025831851767
C            8.61228320387480       -4.73832320519229        4.11551453415091
C            7.51707570168700       -4.98723494639317        5.14827435527524
O            6.21411198706149       -4.80042280228519        4.64131052143836
H           -8.58951036767298       -3.54559080515083        0.61517528686101
H          -10.82656158599220       -2.91466811500282        2.21887950439328
H          -10.65312525466959       -4.48626166317289        1.45499990257772
H          -12.02164743192402       -2.76805191746550        0.12566635587074
H          -10.56481916016773       -1.83375575045110       -0.08460353233825
H          -10.68258308894787       -4.74977223265632       -0.98033377943588
H          -11.34501014895144       -3.49157457245012       -1.98028408366844
H           -9.05084984757207       -2.32115724132884       -1.88655128061178
H           -9.13702029254888       -3.78918163419267       -2.83966504348192
H           -8.88085691098646       -5.83413891596676       -1.26017616329086
H           -7.53820692557639       -5.44523053515759       -2.33254455497602
H           -6.82263154788815       -7.00575602456192       -0.48263111347033
H           -7.34172561468296       -5.82905793587372        0.70138439104306
H           -5.67249462746715       -4.18588776869238       -0.16259584831776
H           -5.17774656376727       -5.30559476500207       -1.39324759648768
H           -4.94822553814365       -5.78038075862974        1.63044199298459
H           -4.39445952458096       -6.91083658918274        0.40989077661964
H           -1.73643407903369       -6.12837960774538       -0.29478598917601
H           -3.16134784754734       -6.02481223289699       -1.30633254823537
H           -1.39235699329333       -3.66058482322684       -0.51948278509999
H           -2.81595556672595       -3.52484382081160       -1.51273088098862
H           -1.81160475430483       -4.88809839060532       -3.29498876564984
H           -0.48911186774647       -5.36094319249381       -2.25971095238612
H            0.37114522512705       -3.66844368130949       -3.76323140341739
H            0.23716285774999       -2.90845376271157       -2.18000759058432
H            0.45039057433607       -1.66846021945806       -4.72400469973334
H            0.26672262820069       -0.85757814663737       -3.17640366958887
H           -1.87058322132153        0.21192235953750       -4.07891569440151
H           -1.52896611805022       -0.47545900082876       -5.63614791402220
H            0.61596695874468        0.77366769639217       -5.76667485263258
H            0.41986820983028        1.33877668305421       -4.12647082590856
H           -0.21067301058993        3.12935145740965       -5.71169740849244
H           -1.63873241017864        2.61509424751475       -4.81279974980064
H           -1.02357186984817        3.70087049548993       -7.79858309045875
H           -2.38871069974152        3.91705636271915       -6.69992080591903
H           -3.03249660384280        3.89996886181522       -9.18437404633997
H           -2.50760709377908        2.23155659694504       -9.24649881995340
H           -5.01122018299037        2.48020708787656       -8.90401504960861
H           -4.70182780017587        3.28155496225508       -7.38722885290568
H           -3.91277055961490        0.40125681843414       -8.05676516465233
H           -3.53407989782447        1.21852216703830       -6.54368837760836
H           -4.61899170792007       -0.29146571147744       -5.38643773168258
H           -5.19545058146586       -1.20732197274767       -6.77875860351650
H           -7.56750381900636       -0.73968898950624       -6.08085455334782
H           -6.97919530528220        0.19282810229504       -4.72936478615573
H           -7.63290419405726       -2.05929176570893       -3.96098914966747
H           -6.57062978531070       -2.81793823529783       -5.12079880725281
H           -5.58862546017714       -2.66007291204823       -2.74595630624349
H           -4.57595034533196       -1.96937729498883       -3.99001745775629
H           -7.46191789410617       -0.56030617712353       -2.21920332161933
H           -6.38762400026087        0.59812794613591       -1.45977190908120
H           -6.53312746433897       -2.40069695932019       -0.89342523819529
H           -5.13098622228911       -1.45878003085713       -0.46894136348390
H           -6.66077415887509        0.09285009238805        0.86220420862101
H           -7.96064059725423       -1.05456303090911        0.61530712782080
H           -6.60087164142199       -2.84431692902739        1.72370808826316
H           -6.66714098655656       -1.44409633888043        2.79853428049352
H           -4.65120399490766       -3.60335262908776        2.62432575704608
H           -4.61579382299954       -2.26371136130339        3.77557703998427
H           -2.46089440697960       -2.83393322972875        1.67507625650255
H           -2.44229380537491       -1.49730564299097        2.79560662369188
H           -2.38928695692646       -3.16822340254265        4.72216132816942
H           -0.97681575977431       -3.21858093077370        3.70504530361727
H           -3.30688275197998       -5.19254660628577        3.60276966186569
H           -1.98511525401695       -5.16444017168340        2.43454908954198
H           -1.65680002444060       -7.29826668718134        3.07099646126511
H           -2.63593915792146       -7.35530115027970        4.54042422538473
H           -0.66697805757372       -8.96257082396688        4.66344617805562
H            0.41155996387574       -7.60773978564358        4.41548028534286
H           -1.41569373533982       -7.99584430220070        6.83222985174795
H           -0.52466888095016       -6.52477832141939        6.49968384506033
H            0.78975128827455       -7.99439878465306        8.05385993558899
H            0.78630057804233       -9.26912455916750        6.82876918894480
H            2.96554936569221       -9.35248345110692        6.54189461705642
H            3.33171954091555       -8.12328403618406        7.75945747889037
H            5.18576378576224       -8.28903447266494        6.01592681119118
H            4.42277425432979       -6.71243453935301        6.02468441885545
H            3.76727253614775       -8.97667188911960        4.06979315142531
H            2.86566652863025       -7.49399040375327        4.18178005032119
H            5.82129578735395       -7.69545210061130        3.41878528498517
H            4.94581229964727       -6.18366711199734        3.66892959309460
H            4.72256050593368       -6.73711210781451        0.13998905261982
H            6.14588886635950       -7.18382737679159        1.05702607207892
H            4.52646186418833       -4.70803856206291        1.81168080408543
H            6.17725755524198       -5.06939569811941        2.24685225650608
H            6.31845856008896       -3.37639216370341        0.53206240800443
H            6.73660882725930       -4.86945672615634       -0.28591450930673
H            5.10336036542250       -3.61111690325021       -1.66704348465575
H            4.28880414156906       -5.03589404639439       -1.03539844342669
H            2.52858679586482       -3.89576858325345       -1.66400586148216
H            1.97956038188643       -2.50506794636045       -0.75473756596251
H            0.65008160855973       -4.54265891060710       -0.16219569532576
H            2.10983023027502       -5.36764470613539        0.32842574107661
H            2.44035440866486       -3.85093335481598        2.20666610765835
H            0.78742395351200       -4.41189991964236        2.25484491844138
H            0.78954823051365       -1.98113824256659        2.66821778342353
H            1.75529255011360       -1.69715068226836        1.23249961543112
H            0.48394952939665       -0.56686716659900       -0.13466928956601
H           -0.43646525097270       -0.20786934216440        1.32373694613524
H           -1.66660975326602       -1.50685072653148       -1.15770034961187
H           -2.54341348910436       -0.88468132301377        0.20944717091990
H           -0.88584276214385        0.75574014037934       -1.78029846183187
H           -1.65602968668126        1.45093430999441       -0.38669125655634
H           -3.86224360099203        1.08525597555555       -1.26831155918681
H           -3.31723287258479       -0.16613776320596       -2.37226099788346
H           -4.00698036820192        2.47941702879201       -4.50486891452808
H           -4.86717090511410        1.37633085156503       -3.44012936078156
H           -4.81100703815975        3.10614699679672       -1.61449815917445
H           -5.57380369521848        3.77987890955461       -3.03733358787565
H           -2.60816354975726        4.09289812931464       -2.32853883569911
H           -3.38283407805802        4.80156109716580       -3.71663033412769
H           -4.85793974830809        6.15548046794218       -2.23497473020826
H           -4.09994449712094        5.45630274205097       -0.81099044427067
H           -2.36180070011736        8.55977401883521       -1.31177674620136
H           -3.49343257910977        7.74324117362776       -0.24080683035401
H           -4.56021500268246        9.64667915622439       -1.61043719473862
H           -5.34706843911334        8.11086656229907       -1.82414890441262
H           -3.31106931294207        9.36407854334351       -3.73318753218012
H           -3.84243128527045        7.71232347192860       -3.85998092359041
H           -6.21007363737923        8.45244312116638       -4.17870838657548
H           -5.72767352049901       10.12515483687220       -3.95690415361063
H           -5.26202454346921        7.25059468652336       -5.98715011988590
H           -3.63345100170338        7.92422522548136       -5.91916584152811
H           -4.04542902113382        9.08928999223354       -8.10589562405982
H           -5.61251526579878        8.33396338211264       -8.20657774184978
H           -4.00487353786168        7.04770887868957       -9.57281420088487
H           -4.50756548270741        6.06385929557149       -8.21426762466997
H           -1.94084908759932        7.71927551231043       -8.18898224410846
H           -1.98723150445007        6.01829213564643       -8.64154999055583
H           -0.39296711231898        5.96324256238895       -6.78047096102842
H           -0.78011065059540        7.60566178051871       -6.27479781558017
H           -1.32850722240816        5.10070808763127       -4.60633422043774
H           -1.68051711470736        6.72833375034110       -4.10382406338203
H            1.11620299005986        5.66239737640551       -4.74102201646920
H            0.78183979965770        7.29138311961228       -4.22877754024972
H           -0.13069087248650        6.45283233098379       -2.05710493401534
H            0.16019251702594        4.79308181314826       -2.56641733190507
H            1.23723176429332        4.85686898705336       -0.52345094094144
H            1.40277780087639        6.60014811530172       -0.31537151631681
H            3.69930217763522        4.58861247645489       -0.58213063449715
H            3.19606647578100        5.37987036131735        0.89729697969547
H            5.09435884980834        6.62671058162516        0.16624640259494
H            3.72795194785812        7.62237318472879       -0.29162103982921
H            3.87666082582371        6.62435800138650       -2.62780856955859
H            5.33704841396554        7.50059669151767       -2.16961513780470
H            6.92574269462930        5.11082752418409       -3.62516771213060
H            5.67462278417525        6.25427933723253       -4.08348153741192
H            5.24683701432657        4.15097625111208       -5.30841660403348
H            5.39857892669985        3.21394913591766       -3.84607736049782
H            3.38811174119240        4.31166489958820       -2.88967723149801
H            3.22772907008867        5.30445829833661       -4.30743884298174
H            1.69155326200373        3.26088092422751       -4.28788306826268
H            2.71010071362776        3.37194331815587       -5.71646014239430
H            3.92548776116557        2.21215250473993       -2.51674839412156
H            2.27444975842208        1.61591711647498       -2.61784187983670
H            4.71013635850266        0.00534122229111       -3.52433315156144
H            3.07996608540863       -0.59044855632825       -3.40117746272652
H            3.16983491538002       -0.26089290508731       -0.89245664720299
H            4.36049025809507       -1.39697658292738       -1.47108091246825
H            4.87722033374020        1.47271396737193       -0.57163000390516
H            6.04550453482476        0.57835899537990       -1.52967825309810
H            3.99977212666708        0.29045645985735        1.32127397039085
H            4.21781965721120       -1.39606630902675        0.85819714291334
H            5.76359199511866        0.04113910970383        3.07480710924383
H            6.10065640783525       -1.57662139727208        2.53072381310408
H            3.73639705286103       -2.25803679057301        3.13655911971677
H            4.66285285021449       -1.75514474191021        4.52177333755617
H            3.55781028764485        0.43295579172816        4.56635951166268
H            2.77096657080169        0.13277635842433        3.02092437130071
H            1.53736643005784        0.35595547311746        6.08962350217484
H            1.19672579035573        0.95489778187916        4.46871649352533
H           -0.30772106528429       -1.38428192596618        5.73756271108686
H           -0.67487051869299       -0.63018855874401        4.21183797894428
H           -1.09956688641049        1.55747068356092        5.44820380284508
H           -0.87857723447282        0.71091394052703        6.95610108391499
H           -3.31966296836341        0.81645470240228        6.39932465711237
H           -2.76759088727710       -0.85201025891571        6.34651147337315
H           -4.32844556287123        1.63689073042560        4.49810012221985
H           -2.65196878014150        1.91813239072630        4.03960619246622
H           -4.59472190096244        0.24298143433856        2.39179090729773
H           -2.98510129276367        0.70962919261928        1.91236190402717
H           -4.78308285095423        2.09133343543901        0.81680615751566
H           -5.27326118262915        2.68881297147114        2.38669001882736
H           -3.01757600025341        3.72761080760652        2.69951063480949
H           -3.74229854418050        4.29229887742797        1.19745554886497
H           -1.87070689783774        4.69078431732516       -0.01987531639187
H           -0.56087760128972        3.52616888241081       -0.02384926600487
H            0.03954041607509        5.43927680972023        1.44325242448467
H           -1.43203348667177        5.24903855970388        2.35183724615882
H            0.47066883769252        4.26524201731279        3.58273892928988
H           -0.68427523843001        3.02725005880700        3.18778677795706
H            1.70995326207894        3.51398657610169        1.35990172574982
H            0.71527371865581        2.07625834602272        1.47665762302621
H            3.38554955796657        3.01138882297267        4.39478785325307
H            2.67883204940813        4.25928654823980        3.38664607452203
H            4.75807723938603        2.17709078176837        2.53469456340948
H            3.93415890748725        3.17887649428058        1.38752745436635
H            5.63929086656137        4.23497241248648        3.69729322713655
H            4.87415521971325        5.23942724239523        2.48698635881881
H            6.22164625655790        4.03469898128007        0.69995400388719
H            7.27822923134444        4.81898502436813        1.87902565482845
H            7.30019135615769        2.22163276023617        0.08596446281191
H            8.74053105139925        2.96787726745710        0.79210658214925
H            9.01199178056586        0.43977906709334        0.51368567798667
H            7.61266644264285        0.22266206195726        1.53850101141164
H            8.83920689347139        1.58251341025253        3.34012825966434
H           10.28668149200629        1.43555214349091        2.36770504568557
H           10.28493474075565       -0.38398858485203        4.02467971136773
H            9.93387716973841       -1.13011922717654        2.46258043302210
H            7.68568780615722       -2.29168049201087        5.11421355336504
H            9.42999704311240       -2.18010934439724        4.99064551410135
H            7.59005477403084       -3.33403595093747        2.83195267676306
H            9.31903144209381       -3.25573732694360        2.70571746737939
H            9.59658785386775       -4.83430226385306        4.59052370380528
H            8.57250052183048       -5.53152461457546        3.35864898808603
H            7.56635914524009       -6.01623947192098        5.52652829898384
H            7.64503112245011       -4.34188188579138        6.02663256738316
H            6.07173939891074       -3.85352830753142        4.41360611468696
