22
        -28.11017777
 C          0.1870023880       -1.1467996604       -0.6865036539
 C         -1.1981177534       -1.5303184035       -0.1637551885
 C         -1.8854988256       -0.4298173035        0.6498018996
 C         -2.0781237758        0.8819896476       -0.1187937671
 O         -0.9112552058        1.6714690970       -0.2084237390
 C          1.2475645486       -1.0538549759        0.4143502351
 C          2.4069555996       -0.1391051501        0.0108862178
 O          2.0738027627        1.2246905279        0.0981630167
 H          0.1050706767       -0.1922626880       -1.2074527837
 H          0.5061845805       -1.8893809528       -1.4214119040
 H         -1.8363417516       -1.7744090131       -1.0162911469
 H         -1.1169090343       -2.4267499554        0.4559646579
 H         -2.8696870136       -0.7916386171        0.9542999625
 H         -1.3187925359       -0.2227201395        1.5610556509
 H         -2.3714376668        0.6763647593       -1.1510174713
 H         -2.8804004967        1.4647961255        0.3557057703
 H         -0.6259692415        1.9055056978        0.6829735544
 H          0.8137210924       -0.6509386309        1.3308805873
 H          1.6337522847       -2.0487973637        0.6414464183
 H          3.2515005876       -0.2756770027        0.6914833517
 H          2.7404997064       -0.3906853719       -1.0074790125
 H          1.2471393551        1.3729653844       -0.3828877482
