19
        -24.95344155
 C         -0.6757627107       -0.0023997820        1.5397662847
 C         -0.6390497947       -0.0116310105        0.0088419239
 C         -2.0607530817       -0.0695888723       -0.5499587137
 C          0.0530771453        1.2720697061       -0.4961574938
 O          1.3560316629        1.4395733519       -0.0064344686
 C          0.1297437267       -1.2478349404       -0.5017219302
 O          1.4627477536       -1.3332367840       -0.0467109913
 H         -1.3720543871        0.7565691706        1.8877015183
 H          0.3050661381        0.2411301296        1.9441481086
 H         -0.9983192059       -0.9677273200        1.9268657522
 H         -2.6236027302        0.8082100028       -0.2426484533
 H         -2.0460933217       -0.1042037095       -1.6369688298
 H         -2.5765673896       -0.9547373636       -0.1844890233
 H         -0.5089088539        2.1482972455       -0.1608162748
 H          0.0534261016        1.2653462814       -1.5975578961
 H          1.8418537568        0.6219542479       -0.1976542270
 H         -0.4230744991       -2.1567002732       -0.2247308435
 H          0.1998147324       -1.2131309778       -1.5923455675
 H          1.4500701980       -1.4252887328        0.9129164250
