19
        -36.35356882
 C         -2.4467032997       -1.8530633072        0.0001233656
 C         -1.0980279315       -1.2059328809       -0.0000660013
 C         -0.9773015805        0.1912799279       -0.0000105405
 C          0.2679676422        0.8041659821       -0.0001235041
 C          1.4179917364        0.0262935045       -0.0001470190
 C          1.3179795129       -1.3629836892       -0.0000215432
 C          0.0693523993       -1.9555861669       -0.0000651448
 N          2.6320380953        0.6667824194       -0.0003160675
 C          3.8174309354        0.5502321904        0.0000866897
 O          4.9710449585        0.6430192335        0.0002731426
 N         -2.0826305121        1.0057696812        0.0000643902
 C         -3.2740499166        1.0440025412        0.0000224282
 O         -4.4047420053        1.2936512702        0.0000589052
 H         -3.0163262848       -1.5529828013        0.8805385125
 H         -2.3534289974       -2.9354869792       -0.0002575022
 H         -3.0169362785       -1.5523955755       -0.8796882107
 H          0.3385604084        1.8796661465       -0.0001230258
 H          2.2134261846       -1.9656624403        0.0001202328
 H         -0.0008099977       -3.0334283876        0.0000350237
