29
        -51.23383171
 O          6.0711387983        2.4808742450       -0.5399668866
 C          5.2815632640        1.7032906422       -0.2037293124
 N          4.5831948407        0.8955533370        0.3230281011
 C          3.4695662724        0.0979922877        0.2178234636
 C          3.1410036663       -0.7208250696        1.2917769421
 C          2.0272392902       -1.5358971114        1.2175048702
 C          1.2303765749       -1.5529002200        0.0809767457
 C          0.0001299825       -2.4179186386       -0.0025774972
 C         -1.2302536814       -1.5530716852       -0.0842992286
 C         -2.0214359983       -1.5262098407       -1.2246194722
 C         -3.1347877855       -0.7104656278       -1.2974352262
 C         -3.4687632382        0.0989812552       -0.2180565188
 N         -4.5818463641        0.8974382991       -0.3219753520
 C         -5.2826523384        1.7010652665        0.2078996884
 O         -6.0736949028        2.4760573117        0.5465530316
 C         -2.6804987244        0.0849755194        0.9311531132
 C         -1.5729157067       -0.7356265675        0.9878037465
 C          1.5676388034       -0.7261176485       -0.9856741627
 C          2.6754510360        0.0940476627       -0.9274325219
 H          3.7614026940       -0.7104284119        2.1743243072
 H          1.7792305590       -2.1709447362        2.0559136960
 H          0.0584339779       -3.0564578718       -0.8866644954
 H         -0.0577408787       -3.0585618176        0.8799769117
 H         -1.7692298498       -2.1540270864       -2.0672177193
 H         -3.7507818923       -0.6924211489       -2.1829455479
 H         -2.9436092397        0.7166298119        1.7668590466
 H         -0.9602093847       -0.7426126308        1.8774755081
 H          0.9503295098       -0.7251728170       -1.8721810691
 H          2.9342119272        0.7331335785       -1.7588351802
