34
        -48.93124015
 C          0.2845813307       -2.8562968216       -1.0752288022
 C          0.1625258523       -1.5974574554       -0.2049472304
 C          0.8450050921       -1.9045377707        1.1311455147
 C         -1.3286690487       -1.2912526608       -0.0057221973
 C         -1.5704750834        0.0878722434        0.6108205540
 C         -0.9571104489        1.1811831578       -0.2690360739
 C          0.5496833560        0.9942661838       -0.4971594485
 C          1.0022612029        1.9569486280       -1.6040474023
 C          1.3079023461        1.3919712753        0.7899547405
 N          2.7035728882        1.1711130992        0.7323838510
 C          3.5691686318        0.4220843705        0.4208556538
 O          4.5498028912       -0.1545041171        0.1857140366
 C          0.8319141966       -0.4410389934       -0.9688942266
 N         -2.9634311436        0.3221773307        0.7853775687
 C         -4.0134426674        0.3958316369        0.2354848893
 O         -5.1163759842        0.5103731700       -0.1042125600
 H         -0.2009731846       -3.7013356476       -0.5927718209
 H         -0.1803922701       -2.7082284614       -2.0474271950
 H          1.3311832769       -3.1066785042       -1.2315013542
 H          0.6693368180       -1.1385296660        1.8785802170
 H          1.9191441164       -2.0049767947        0.9928090952
 H          0.4668785150       -2.8440740416        1.5291620111
 H         -1.8340312808       -1.3212603605       -0.9746030319
 H         -1.7808928484       -2.0560625029        0.6285227717
 H         -1.1511027827        0.1298733745        1.6205676894
 H         -1.4636008972        1.1566351331       -1.2371655343
 H         -1.1483058405        2.1583759553        0.1794895758
 H          0.7724545596        2.9853266175       -1.3339463476
 H          2.0755844421        1.8747818492       -1.7592700642
 H          0.5020117879        1.7326994208       -2.5430446735
 H          0.9095885719        0.8714411333        1.6638837901
 H          1.1763211457        2.4660246332        0.9546833690
 H          0.4872578329       -0.5006341347       -2.0042854600
 H          1.9112252451       -0.6076837464       -0.9879760681
