489

C     -0.083760   -2.155069    4.260302
C      0.041077   -3.193583    3.131816
C      1.240309   -2.820671    2.240788
C      0.241856   -4.601035    3.725881
O      1.445054   -4.694861    4.480358
C     -1.258382   -3.177178    2.300135
O     -1.160127   -4.069941    1.179802
C     -2.317151   -4.220443    0.490340
O     -3.375011   -3.670343    0.751380
N     -2.117152   -5.100789   -0.529579
C     -3.179118   -5.511435   -1.434482
C     -4.194048   -6.400127   -0.695401
C     -4.835616   -7.422744   -1.624030
C     -3.793597   -8.407527   -2.203377
C     -3.650888   -9.650416   -1.286669
C     -3.086922  -10.922130   -1.973405
C     -1.552255  -10.930501   -2.146771
C     -0.814984  -11.849931   -1.166781
C     -1.444446  -11.775348    0.224502
N     -0.614938  -12.436397    1.213548
C     -0.908850  -12.441143    2.544993
O     -1.973203  -12.101850    3.039180
O      0.176900  -12.871905    3.234002
C      0.021545  -12.833312    4.660543
C      1.396318  -12.924452    5.361801
C      1.172424  -12.911967    6.884615
C      2.106202  -14.235416    4.977389
C      2.267299  -11.720189    4.938635
O      3.497000  -11.702658    5.683297
C      4.273670  -10.619872    5.432202
O      4.056116   -9.768070    4.584374
N      5.333025  -10.621636    6.287304
C      6.309835   -9.552373    6.314650
C      7.364575   -9.734459    5.213026
C      8.662840   -8.965013    5.483018
C      8.431762   -7.755281    6.399695
C      9.698532   -6.889068    6.563638
C      9.741831   -5.633240    5.661926
C      9.705663   -5.938680    4.162450
C      9.691259   -4.671391    3.297044
C     10.430347   -3.471491    3.908139
N      9.504329   -2.560498    4.562156
C      9.782657   -1.245202    4.776567
O     10.815863   -0.677600    4.457052
O      8.725121   -0.665399    5.397589
C      8.865916    0.732716    5.688978
C      8.524407    1.602289    4.479322
C      7.031162    1.662074    4.142461
C      6.411679    0.315798    3.771821
O      5.164947    0.449935    3.089378
C      4.141464    1.083990    3.855808
C      2.800261    0.831490    3.176540
C      1.602555    1.330268    3.987088
C      1.560998    2.840238    4.197755
O      1.475251    3.490989    2.937185
C      1.271136    4.892854    3.062986
C      1.373723    5.566917    1.699012
C      0.412920    4.989096    0.664466
C      0.322363    5.814227   -0.618020
O      1.570588    5.882906   -1.308780
C      2.175875    7.172587   -1.214388
C      3.551810    7.135170   -1.872458
C      4.258878    8.491033   -1.892333
C      3.547253    9.535025   -2.746179
O      4.304752   10.749033   -2.724355
C      3.584465   11.843543   -3.298558
C      2.709633   12.516010   -2.240869
C      1.773119   13.557903   -2.843731
C      0.802129   14.111031   -1.798377
O     -0.038944   15.122923   -2.352888
C     -1.137502   14.624971   -3.113485
C     -2.351949   14.331237   -2.229768
C     -3.536489   13.887772   -3.090010
C     -4.817045   13.639374   -2.300628
O     -4.651109   12.531911   -1.411487
C     -5.903165   11.892218   -1.150216
C     -5.744989   10.908417    0.005780
C     -6.911153    9.922221    0.045833
C     -6.849879    8.983409    1.244695
O     -7.766488    7.917529    1.010307
C     -7.793121    6.970716    2.076115
C     -8.743845    5.834040    1.706625
C     -8.225392    4.939927    0.575538
C     -7.174829    3.931965    1.043781
O     -6.805898    3.074009   -0.036512
C     -5.613425    3.508718   -0.691804
C     -5.370721    2.686544   -1.949568
C     -4.108798    3.131296   -2.692678
C     -3.897000    2.332951   -3.973801
O     -3.511756    1.001103   -3.645650
C     -3.556006    0.135803   -4.774698
C     -3.070060   -1.250468   -4.364712
C     -1.593564   -1.249719   -3.966439
C     -1.119564   -2.645981   -3.575159
O      0.281022   -2.626101   -3.304551
C      0.578269   -2.423527   -1.921447
C      2.016167   -1.932828   -1.775569
C      3.037596   -2.898986   -2.383123
C      4.458217   -2.330217   -2.377852
O      4.544350   -1.072366   -3.041677
C      4.465412   -1.145737   -4.464296
C      3.497864   -0.068440   -4.940023
C      3.312318   -0.079225   -6.457113
C      2.275887    0.953314   -6.893906
O      2.764861    2.257480   -6.590073
C      1.750634    3.253060   -6.708520
C      2.368823    4.594815   -6.340126
C      1.331243    5.712150   -6.291035
C      1.978429    7.037946   -5.895676
O      1.036046    8.103283   -5.768573
C      0.123782    7.930648   -4.684431
C     -0.224994    9.305559   -4.124243
C     -1.275161    9.208900   -3.017454
C     -1.427652   10.519654   -2.249509
O     -0.272666   10.760171   -1.445185
C     -0.406108   10.263763   -0.112403
C      0.938009   10.399298    0.597869
C      0.876289    9.868535    2.030216
C      2.256068    9.738959    2.676664
O      3.011190    8.768861    1.956624
C      4.123324    8.266128    2.698833
C      4.897287    7.304058    1.802331
C      5.903836    6.453574    2.578171
C      6.556870    5.390525    1.692255
O      5.556367    4.476370    1.251564
C      6.089382    3.444275    0.419900
C      4.961473    2.552936   -0.100030
C      4.009473    3.324352   -1.016707
C      2.945069    2.446218   -1.668438
O      2.087595    1.888326   -0.673923
C      0.761394    1.701623   -1.161141
C     -0.089295    1.099596   -0.047155
C     -1.571103    1.164111   -0.399273
C     -2.418922    0.274889    0.494676
O     -3.776130    0.369029    0.071023
C     -4.659011   -0.279939    0.980047
C     -6.040288   -0.450674    0.352848
C     -6.022984   -1.363990   -0.880029
C     -7.432855   -1.601029   -1.419334
O     -7.900484   -0.448776   -2.123226
C     -9.322114   -0.432678   -2.227065
C     -9.774509    0.604949   -3.253025
C     -9.312355    2.022956   -2.918608
C     -9.882202    3.048707   -3.899545
O     -9.404124    4.358904   -3.591084
C     -8.200830    4.688537   -4.286871
C     -7.544523    5.874084   -3.587774
C     -6.254824    6.314472   -4.287359
C     -5.427346    7.278110   -3.436401
O     -5.021565    6.596182   -2.256204
C     -4.148536    7.350221   -1.423350
C     -4.049874    6.615628   -0.092786
C     -3.170440    7.320077    0.935833
C     -3.263491    6.648502    2.306619
O     -2.933448    5.268474    2.183897
C     -2.983395    4.580146    3.432274
C     -2.537911    3.135883    3.210266
C     -2.300844    2.381600    4.520624
C     -3.578839    1.909894    5.206734
O     -4.029303    0.709070    4.580887
C     -5.173061    0.166175    5.238017
C     -5.446113   -1.245473    4.722517
C     -4.284513   -2.197257    5.014474
C     -4.598238   -3.629722    4.590721
O     -3.478937   -4.448477    4.937282
C     -3.726967   -5.850805    4.813141
C     -3.835056   -6.298690    3.356405
C     -3.937445   -7.818619    3.195258
C     -2.644962   -8.568731    3.511307
O     -1.596988   -8.072602    2.669488
C     -0.359521   -8.515033    3.000696
O     -0.103447   -9.296195    3.903746
N      0.546932   -7.936571    2.167533
C      1.984803   -8.142152    2.280020
C      2.765673   -6.996721    1.612944
C      3.242216   -7.298341    0.184122
C      2.281546   -8.220483   -0.571341
C      2.724652   -8.505001   -2.021701
C      2.779040   -7.284899   -2.966272
C      3.255038   -7.714884   -4.371711
C      2.088744   -8.046408   -5.297576
C      1.171340   -6.831322   -5.525275
N     -0.208093   -7.336883   -5.680171
C     -0.837644   -6.783860   -6.501839
O     -1.464027   -6.221659   -7.322169
C      1.219751   -5.836907   -4.353460
C      1.428032   -6.546336   -3.020543
C      2.103689   -9.558268    0.176088
C      2.383307   -9.487936    1.677092
C     11.521814   -3.935491    4.871803
C     10.981831   -4.788052    6.022708
C      7.935707   -8.256005    7.773911
C      6.971488   -9.444805    7.687198
C     -2.883200  -12.318867    0.174630
C     -3.533125  -12.183454   -1.208053
C     -2.444412   -7.705564   -2.460005
C     -2.599641   -6.201604   -2.679817
H      0.842801   -2.069193    4.838461
H     -0.313359   -1.162008    3.858029
H     -0.887770   -2.424576    4.954871
H      2.168625   -2.764056    2.819238
H      1.087336   -1.844633    1.766673
H      1.393306   -3.556206    1.443730
H      0.302940   -5.344187    2.928224
H     -0.594175   -4.887911    4.373561
H      1.284314   -4.265469    5.337343
H     -1.440414   -2.166479    1.923892
H     -2.104400   -3.469656    2.929089
H     -1.187857   -5.488368   -0.606617
H     -3.684387   -4.592830   -1.759895
H     -3.705413   -6.929652    0.131294
H     -4.968976   -5.771747   -0.240287
H     -5.325212   -6.891028   -2.450962
H     -5.635922   -7.956210   -1.098427
H     -4.195553   -8.746586   -3.167041
H     -3.063225   -9.390769   -0.398711
H     -4.653978   -9.903622   -0.917939
H     -3.537834  -10.976282   -2.972918
H     -1.136692   -9.926138   -2.046802
H     -1.307697  -11.254995   -3.166399
H     -0.840185  -12.885640   -1.532596
H      0.244942  -11.575432   -1.143079
H     -1.479064  -10.723872    0.537256
H      0.329915  -12.713847    0.988214
H     -0.610025  -13.681606    4.954619
H     -0.481229  -11.905761    4.965452
H      0.518778  -13.735865    7.192595
H      0.703256  -11.975168    7.205323
H      2.114204  -13.019570    7.433785
H      2.331832  -14.270684    3.906202
H      3.051393  -14.352392    5.518397
H      1.481084  -15.103840    5.214377
H      1.726604  -10.786276    5.131891
H      2.506285  -11.781150    3.871012
H      5.410219  -11.419053    6.903018
H      5.765850   -8.617730    6.123247
H      6.937502   -9.404128    4.257927
H      7.608071  -10.796004    5.079433
H      9.384030   -9.643511    5.958163
H      9.109657   -8.674345    4.527524
H      7.636363   -7.132956    5.968252
H      9.762136   -6.537966    7.602544
H     10.594610   -7.500132    6.394003
H      8.851231   -5.035398    5.899315
H     10.579679   -6.547242    3.894770
H      8.821242   -6.529165    3.902188
H     10.154291   -4.924386    2.333744
H      8.653216   -4.398562    3.066268
H     10.899654   -2.905730    3.093223
H      8.611767   -2.885146    4.906244
H      9.882688    0.945527    6.042662
H      8.191518    0.960017    6.522494
H      8.861704    2.625651    4.684830
H      9.071395    1.255274    3.595035
H      6.889100    2.364106    3.312972
H      6.486910    2.093291    4.991339
H      6.264710   -0.312211    4.657105
H      7.077691   -0.224533    3.090545
H      4.128096    0.672174    4.871597
H      4.347621    2.157679    3.904731
H      2.797695    1.277073    2.175828
H      2.688664   -0.247277    3.013531
H      1.584182    0.828381    4.961585
H      0.694754    1.029975    3.449723
H      2.449532    3.188463    4.733951
H      0.681472    3.091405    4.799395
H      0.283003    5.074306    3.498098
H      2.028976    5.318459    3.730956
H      2.392603    5.435753    1.324154
H      1.192179    6.637729    1.825329
H      0.751135    3.982284    0.417294
H     -0.588393    4.901184    1.093343
H     -0.071870    6.814945   -0.408889
H     -0.388071    5.326424   -1.295651
H      2.275742    7.462274   -0.166920
H      1.523995    7.892662   -1.716571
H      3.466047    6.737475   -2.889597
H      4.180034    6.417182   -1.331787
H      5.280307    8.359621   -2.268971
H      4.367826    8.877766   -0.871921
H      2.546201    9.719320   -2.352307
H      3.462932    9.187610   -3.782020
H      4.323557   12.563884   -3.666142
H      2.998723   11.503812   -4.161410
H      2.124409   11.762155   -1.709541
H      3.352228   12.975284   -1.479931
H      1.215081   13.110422   -3.673473
H      2.350140   14.381722   -3.281819
H      1.373702   14.584767   -0.992528
H      0.198978   13.321462   -1.341863
H     -0.855721   13.741795   -3.695997
H     -1.399784   15.412088   -3.831131
H     -2.609539   15.230871   -1.657037
H     -2.105595   13.560626   -1.491004
H     -3.738849   14.654313   -3.848261
H     -3.262532   12.967565   -3.621964
H     -5.095843   14.522322   -1.714954
H     -5.622570   13.433098   -3.016725
H     -6.666026   12.638786   -0.897635
H     -6.210654   11.364693   -2.060959
H     -5.676680   11.466154    0.947528
H     -4.796248   10.367951   -0.092565
H     -7.866955   10.461017    0.064360
H     -6.921064    9.332155   -0.879036
H     -7.124348    9.517895    2.160779
H     -5.843637    8.573009    1.363765
H     -8.159780    7.471140    2.979256
H     -6.785737    6.591628    2.271906
H     -8.950789    5.224414    2.594270
H     -9.695627    6.271225    1.381245
H     -7.835272    5.545734   -0.248472
H     -9.069104    4.378116    0.154828
H     -7.610365    3.291673    1.819639
H     -6.296981    4.420449    1.481293
H     -4.769566    3.404047   -0.000985
H     -5.730984    4.556582   -0.968098
H     -5.316444    1.624246   -1.700227
H     -6.233799    2.792649   -2.610890
H     -4.191186    4.191343   -2.947403
H     -3.241798    3.017334   -2.036085
H     -3.092895    2.790443   -4.561499
H     -4.813110    2.333169   -4.576366
H     -4.590338    0.064997   -5.130078
H     -2.932357    0.539130   -5.580570
H     -3.665958   -1.610290   -3.517358
H     -3.225197   -1.944977   -5.198514
H     -1.421942   -0.560816   -3.133578
H     -0.977606   -0.874116   -4.794568
H     -1.273722   -3.331214   -4.415491
H     -1.681496   -3.038621   -2.720863
H      0.441465   -3.372197   -1.392019
H     -0.100574   -1.682841   -1.486682
H      2.098107   -0.961715   -2.273071
H      2.242034   -1.772914   -0.715582
H      2.748400   -3.129596   -3.412711
H      3.026560   -3.842601   -1.825464
H      5.162943   -3.037929   -2.828723
H      4.777950   -2.170306   -1.342614
H      4.144960   -2.133328   -4.812923
H      5.467856   -0.959584   -4.864533
H      3.857620    0.911180   -4.603747
H      2.527852   -0.213244   -4.449187
H      4.274298    0.135767   -6.937211
H      2.988158   -1.072704   -6.784690
H      2.109638    0.881630   -7.974472
H      1.324409    0.770747   -6.378863
H      1.370873    3.273869   -7.735761
H      0.927410    3.015721   -6.024729
H      3.160859    4.838471   -7.059215
H      2.867220    4.506803   -5.365901
H      0.835230    5.823723   -7.262471
H      0.543225    5.446267   -5.577349
H      2.542027    6.944684   -4.962707
H      2.693264    7.338670   -6.669041
H      0.561780    7.310431   -3.894745
H     -0.774267    7.432249   -5.064370
H     -0.588461    9.954644   -4.930034
H      0.689578    9.780961   -3.755051
H     -0.997537    8.406962   -2.324499
H     -2.237015    8.942701   -3.469814
H     -1.517135   11.351148   -2.955104
H     -2.335445   10.509973   -1.634331
H     -0.710545    9.213011   -0.136690
H     -1.174750   10.844851    0.410654
H      1.698639    9.866544    0.017328
H      1.251076   11.450513    0.601791
H      0.398035    8.881359    2.023733
H      0.250099   10.530683    2.638645
H      2.789934   10.696124    2.659936
H      2.129277    9.421300    3.718816
H      4.766883    9.094448    3.016574
H      3.747094    7.742911    3.585311
H      5.417017    7.874799    1.023374
H      4.192172    6.659660    1.271129
H      5.384081    5.953643    3.405979
H      6.677341    7.098685    3.009304
H      7.314166    4.848548    2.269795
H      7.039529    5.859425    0.826637
H      6.791623    2.839469    1.003883
H      6.632932    3.889203   -0.421811
H      4.398914    2.150335    0.747503
H      5.395560    1.707408   -0.645295
H      3.513412    4.103336   -0.428581
H      4.583756    3.820871   -1.806696
H      2.373859    3.063458   -2.373006
H      3.404593    1.625879   -2.227730
H      0.775261    1.036493   -2.031927
H      0.346548    2.667670   -1.471266
H      0.090192    1.628338    0.896567
H      0.232084    0.066464    0.126783
H     -1.921103    2.200134   -0.316203
H     -1.732399    0.877888   -1.443162
H     -2.321865    0.576872    1.542668
H     -2.097708   -0.764961    0.386837
H     -4.744241    0.340922    1.877542
H     -4.259018   -1.256402    1.271399
H     -6.716707   -0.867789    1.108659
H     -6.437878    0.525790    0.065453
H     -5.393645   -0.921078   -1.660718
H     -5.584671   -2.329826   -0.601512
H     -7.418230   -2.439061   -2.125131
H     -8.112293   -1.857233   -0.596784
H     -9.746635   -0.202632   -1.242882
H     -9.682191   -1.420148   -2.540274
H    -10.867835    0.576484   -3.326582
H     -9.370795    0.331276   -4.236219
H     -8.221227    2.063436   -2.937922
H     -9.607056    2.295150   -1.898044
H     -9.654614    2.786929   -4.940126
H    -10.972962    3.076007   -3.800374
H     -8.454288    4.942879   -5.322420
H     -7.514416    3.835186   -4.297026
H     -7.344577    5.589312   -2.549957
H     -8.247894    6.714864   -3.537227
H     -5.646005    5.428841   -4.505210
H     -6.498426    6.787995   -5.245358
H     -6.018442    8.161864   -3.171164
H     -4.542571    7.595382   -3.998367
H     -4.541569    8.360431   -1.281205
H     -3.166301    7.404474   -1.897480
H     -3.658035    5.608532   -0.279777
H     -5.060179    6.477340    0.310217
H     -2.132896    7.288881    0.588433
H     -3.451671    8.374489    1.028887
H     -2.563936    7.134450    2.997246
H     -4.277770    6.748669    2.707418
H     -4.005384    4.613565    3.825566
H     -2.312053    5.078393    4.140785
H     -3.267974    2.615362    2.579306
H     -1.603057    3.143561    2.636356
H     -1.671352    1.508952    4.306415
H     -1.741822    3.026296    5.208268
H     -3.348183    1.691580    6.255912
H     -4.365548    2.670731    5.171829
H     -5.009478    0.134892    6.322365
H     -6.036408    0.809382    5.034480
H     -5.619297   -1.216647    3.641506
H     -6.361135   -1.622381    5.193927
H     -4.045549   -2.184265    6.085271
H     -3.376670   -1.859405    4.500344
H     -5.494931   -3.987919    5.109928
H     -4.766455   -3.669881    3.509604
H     -2.880485   -6.348294    5.295694
H     -4.625215   -6.121232    5.380203
H     -2.986652   -5.905643    2.787296
H     -4.726812   -5.847766    2.906183
H     -4.749982   -8.207622    3.819606
H     -4.206412   -8.025823    2.153041
H     -2.380973   -8.447459    4.567386
H     -2.791261   -9.632785    3.302030
H      0.168418   -7.308195    1.475045
H      2.214596   -8.144274    3.352614
H      2.165556   -6.078922    1.606428
H      3.653721   -6.771218    2.217030
H      3.375235   -6.347153   -0.342123
H      4.233873   -7.766726    0.228923
H      1.299793   -7.729918   -0.600590
H      3.717417   -8.974935   -1.999623
H      2.042057   -9.250283   -2.452167
H      3.537329   -6.591058   -2.582182
H      3.835264   -6.897049   -4.818963
H      3.938401   -8.569881   -4.307917
H      1.523278   -8.888268   -4.876192
H      2.469667   -8.395531   -6.265576
H      1.506355   -6.307586   -6.433449
H      0.306319   -5.236105   -4.318725
H      2.047087   -5.136276   -4.516608
H      1.376246   -5.816523   -2.204385
H      0.601741   -7.249082   -2.860292
H      1.068596   -9.884341    0.028569
H      2.735281  -10.345307   -0.254581
H      3.454300   -9.654589    1.848545
H      1.857673  -10.311567    2.171891
H     12.255450   -4.527779    4.309325
H     12.072369   -3.082157    5.284739
H     10.720229   -4.135074    6.865732
H     11.799605   -5.425379    6.381440
H      8.782298   -8.544517    8.410498
H      7.438321   -7.423690    8.287948
H      6.215393   -9.358841    8.477198
H      7.521619  -10.371422    7.899798
H     -3.494105  -11.785722    0.914065
H     -2.910282  -13.376899    0.466753
H     -3.270847  -13.065150   -1.808919
H     -4.624745  -12.211101   -1.105003
H     -1.963568   -8.153593   -3.336677
H     -1.764774   -7.854787   -1.612126
H     -1.633805   -5.760394   -2.949659
H     -3.267878   -6.035213   -3.534792
