991

O      9.498657   -2.305224    5.725678
C      9.410613   -2.814579    4.666068
N      9.301902   -3.334971    3.623194
C      9.680625   -2.537753    2.532751
C     10.733081   -2.970420    1.730060
C     11.064472   -2.302024    0.546742
C     10.399743   -1.139698    0.162221
C     10.731459   -0.410926   -1.130160
C     12.180109   -0.415561   -1.580018
C     12.514604   -0.768299   -2.892302
C     13.850366   -0.946167   -3.265203
C     14.872745   -0.777007   -2.327416
N     16.158927   -1.211503   -2.691926
C     17.220557   -1.454362   -1.865383
O     17.322292   -1.200468   -0.675465
O     18.161569   -2.128664   -2.583103
C     19.225560   -2.721947   -1.819714
C     18.842422   -4.153305   -1.438810
C     19.943308   -4.831791   -0.623780
C     19.645899   -6.298515   -0.315216
O     18.474450   -6.406440    0.491953
C     18.324478   -7.724392    1.028309
C     17.001007   -7.816080    1.785741
C     15.810632   -7.905523    0.831798
C     14.474936   -7.725579    1.548286
O     13.439131   -7.825799    0.572347
C     12.226828   -7.191365    0.983374
C     11.309876   -7.114728   -0.235728
C     10.186311   -6.102264   -0.049044
C      9.401313   -5.790015   -1.318084
O     10.123086   -4.907260   -2.191658
C      9.298705   -4.511162   -3.292193
C     10.009255   -3.526592   -4.223923
C      9.123787   -3.186786   -5.428779
C      9.638117   -2.038745   -6.301794
O      8.563000   -1.611114   -7.155577
C      8.947240   -0.580771   -8.072583
C      7.694136   -0.019328   -8.769749
C      7.147693    1.235950   -8.078308
C      5.786350    1.696564   -8.598448
O      5.417302    2.879649   -7.879263
C      4.024605    3.184239   -7.980885
C      3.733471    4.469087   -7.196680
C      2.228704    4.732649   -7.054040
C      1.915729    5.990327   -6.236530
O      2.174595    5.866854   -4.836223
C      1.175818    5.147140   -4.112328
C      1.272988    5.493880   -2.622354
C      0.093603    4.984649   -1.778951
C      0.234104    5.359489   -0.301583
O     -0.922179    5.093039    0.503113
C     -2.004325    5.997547    0.275069
C     -2.823538    6.234304    1.554022
C     -3.665219    5.034441    2.009080
C     -3.022424    4.230452    3.140005
O     -3.561708    2.899556    3.138134
C     -3.049938    2.110759    4.213107
C     -3.217639    0.606086    3.961732
C     -4.601225    0.212211    3.446499
C     -4.943941   -1.263074    3.682561
O     -4.203260   -2.144067    2.836809
C     -4.437357   -3.520708    3.177114
C     -3.842041   -4.462027    2.121738
C     -2.998252   -5.592774    2.714210
C     -2.371732   -6.480993    1.631878
O     -1.467901   -7.386935    2.268575
C     -0.977906   -8.427362    1.417661
C      0.115388   -7.945685    0.459295
C      0.839958   -9.118632   -0.214306
C      1.864576   -8.656153   -1.250511
O      2.595315   -9.787199   -1.744473
C      3.425753   -9.429404   -2.855157
C      4.613569  -10.394704   -2.950850
C      5.584727   -9.980983   -4.066179
C      7.041205  -10.398088   -3.812484
O      7.892556   -9.343101   -4.292255
C      9.260508   -9.494100   -3.884472
C     10.110354   -8.445674   -4.615589
C     11.487332   -8.236972   -3.974709
C     12.348111   -7.215148   -4.730630
O     13.495383   -6.826476   -3.955922
C     13.270113   -5.602330   -3.244087
C     14.319571   -5.381795   -2.146491
C     13.822281   -4.355295   -1.120754
C     14.823125   -3.993769   -0.023074
O     14.142605   -3.248773    1.001429
C     15.043324   -2.661685    1.943564
C     14.281928   -2.202285    3.194773
C     13.510946   -0.878785    3.040129
C     12.634368   -0.599770    4.265847
O     11.911453    0.639636    4.148704
C     10.788487    0.647232    5.041606
C     10.265560    2.050176    5.356184
C      9.646731    2.777195    4.161980
C      9.021074    4.114887    4.570587
O      8.477774    4.779718    3.430836
C      8.169328    6.153059    3.677292
C      7.493943    6.799146    2.459057
C      8.361544    6.768409    1.198837
C      7.697612    7.380315   -0.032081
O      8.622008    7.390576   -1.124970
C      7.993563    7.496634   -2.409850
C      7.715304    6.114978   -3.030211
C      6.220284    5.796594   -3.105818
C      5.906427    4.371717   -3.576600
O      4.516599    4.142731   -3.326017
C      4.143962    2.777024   -3.169622
C      3.739676    2.127789   -4.488208
C      3.005240    0.809128   -4.248583
C      2.712369    0.036185   -5.532775
O      1.558628    0.579843   -6.178616
C      1.112515   -0.258059   -7.253129
C     -0.283444    0.192778   -7.679025
C     -0.831041   -0.597952   -8.865763
C     -2.236186   -0.129033   -9.246047
O     -2.619721   -0.731168  -10.480893
C     -3.660295   -1.701650  -10.351971
C     -3.880522   -2.315281  -11.731518
C     -4.960301   -3.392463  -11.779471
C     -6.389080   -2.850078  -11.764044
O     -7.267418   -3.960751  -11.958771
C     -8.651981   -3.620893  -12.038622
C     -9.020778   -3.059399  -13.412126
C    -10.525164   -3.049900  -13.706736
C    -11.351627   -2.249615  -12.703554
O    -12.696348   -2.145988  -13.170170
C    -13.606702   -1.609313  -12.200438
C    -13.393384   -0.113740  -11.967668
C    -14.437155    0.542437  -11.060145
C    -14.412060    0.044342   -9.617609
O    -15.308824    0.838579   -8.839334
C    -15.412096    0.380039   -7.487424
C    -14.911973    1.461335   -6.528374
C    -15.372494    1.186112   -5.092284
C    -14.918220    2.256760   -4.102016
O    -13.546050    2.055404   -3.771618
C    -13.067896    3.028899   -2.842502
C    -11.685898    2.622802   -2.333661
C    -11.742214    1.422236   -1.377454
C    -10.361268    0.806004   -1.139908
O     -9.987133    0.009652   -2.255234
C     -8.576967   -0.106022   -2.463606
C     -8.250876   -1.487447   -3.038419
C     -6.817325   -1.679016   -3.551600
C     -6.709691   -2.963303   -4.380083
O     -5.365600   -3.364460   -4.668648
C     -4.663704   -2.475684   -5.529420
C     -3.426176   -3.175173   -6.104610
C     -2.517986   -3.789723   -5.037768
C     -1.190444   -4.292199   -5.607132
O     -0.354842   -4.743066   -4.523618
C      0.442730   -3.801720   -3.946019
O      0.634516   -2.687814   -4.410570
N      0.915430   -4.312251   -2.770539
C      1.614370   -3.660084   -1.738540
C      1.981562   -2.313302   -1.762011
C      2.640688   -1.726727   -0.669887
C      2.971241   -2.485841    0.459904
C      3.701822   -1.838886    1.624575
C      4.587543   -2.780120    2.413385
C      5.748529   -3.309788    1.836970
C      6.469862   -4.317296    2.484042
C      6.062189   -4.791958    3.729774
N      6.657311   -5.889606    4.374696
C      7.739899   -6.616978    3.970197
O      8.585989   -6.318961    3.141219
O      7.711369   -7.810718    4.623444
C      8.617074   -8.823187    4.147623
C      7.946185   -9.689393    3.073380
C      7.905327   -9.011909    1.703599
C      7.120593   -9.810059    0.665793
O      7.155385   -9.139066   -0.608321
C      6.335892   -8.058222   -0.732412
O      5.574512   -7.676198    0.142581
N      6.515816   -7.515015   -1.975477
C      6.055872   -6.271747   -2.438776
C      6.219438   -5.967599   -3.794971
C      5.893661   -4.697949   -4.289548
C      5.426760   -3.702122   -3.425826
C      5.089828   -2.316102   -3.919554
C      6.093964   -1.224124   -3.609589
C      6.326440   -0.753635   -2.313077
C      7.232393    0.293650   -2.080649
C      7.936452    0.891682   -3.129170
N      8.834128    1.933186   -2.833517
C      9.625663    2.655436   -3.685190
O      9.719643    2.559118   -4.898857
O     10.318856    3.555594   -2.944495
C     11.124272    4.505667   -3.660263
C     11.633327    5.504173   -2.626015
C     12.436465    6.660880   -3.216948
C     12.923231    7.613508   -2.119254
O     11.788855    8.252752   -1.513305
C     11.964217    8.706156   -0.240174
O     13.025535    8.652880    0.362714
N     10.778753    9.233060    0.189375
C     10.438566    9.724838    1.462675
C     11.250275    9.593046    2.586902
C     10.798551   10.027218    3.842636
C      9.528844   10.603574    4.000581
C      9.093850   11.129227    5.351422
C      7.719597   10.715471    5.841748
C      7.401376    9.371984    6.073658
C      6.159038    9.009527    6.620663
C      5.208879    9.981039    6.940477
N      3.944353    9.698684    7.496119
C      3.449549    8.492967    7.914824
O      4.031774    7.421503    7.945521
O      2.157997    8.668121    8.317159
C      1.480338    7.455141    8.697486
C      0.035093    7.806213    9.059472
C     -0.836731    6.568874    9.290185
C     -2.290424    6.943944    9.587724
O     -3.084558    5.753527    9.776869
C     -3.872761    5.354762    8.740435
O     -3.931245    5.922886    7.660144
N     -4.567567    4.243092    9.126296
C     -5.417492    3.428814    8.353376
C     -5.617989    3.587812    6.982141
C     -6.406365    2.676667    6.260714
C     -7.034232    1.602190    6.898595
C     -7.737338    0.506446    6.129575
C     -9.068554    0.747792    5.451015
C    -10.100271   -0.184438    5.645688
C    -11.241746   -0.197884    4.832064
C    -11.387679    0.728680    3.803475
N    -12.403998    0.662148    2.827882
C    -13.385474   -0.284786    2.699246
O    -13.667571   -1.175757    3.486356
O    -14.021712   -0.107663    1.501363
C    -15.024041   -1.103597    1.233169
C    -15.478920   -1.035717   -0.227779
C    -16.530666   -2.118529   -0.497188
C    -17.210505   -2.012491   -1.859219
O    -16.327783   -2.412181   -2.909032
C    -17.042112   -2.551208   -4.143432
C    -16.094112   -2.849287   -5.302329
C    -15.344031   -4.175235   -5.150123
C    -14.438961   -4.513286   -6.340528
O    -13.827753   -3.339254   -6.867554
C    -12.535635   -3.579004   -7.429695
C    -12.118528   -2.325374   -8.191830
C    -10.619844   -2.264140   -8.475618
C    -10.212010   -1.047396   -9.312681
O    -10.838663    0.134943   -8.834191
C    -10.401015    1.315783   -9.504537
C    -11.084969    2.510363   -8.845892
C    -10.593616    3.846402   -9.405085
C    -10.674882    4.960992   -8.361906
O     -9.654131    4.727809   -7.390615
C     -9.566643    5.732423   -6.382494
C    -10.574886    5.499572   -5.258769
C    -10.509603    6.575819   -4.169327
C     -9.249662    6.526661   -3.304405
O     -9.262440    5.334349   -2.524678
C     -8.117186    5.231301   -1.675548
C     -8.275643    3.975117   -0.825460
C     -7.169885    3.821283    0.215672
C     -7.409325    2.654451    1.176790
O     -7.373757    1.379266    0.524472
C     -7.750231    0.343490    1.436719
C     -7.655426   -1.080008    0.881557
C     -6.322665   -1.448181    0.237037
C     -6.139218   -2.963300    0.109708
O     -7.083787   -3.577980   -0.763691
C     -7.008965   -5.011383   -0.687982
C     -8.076643   -5.643163   -1.585708
C     -8.506339   -7.055375   -1.149831
C     -9.433399   -7.014189    0.065007
O     -9.939525   -8.310251    0.400469
C    -11.102894   -8.230429    1.240248
C    -10.801175   -7.858103    2.701326
C    -12.086871   -7.503473    3.460340
C    -11.883370   -7.103000    4.925895
O    -11.265345   -5.816710    5.035651
C    -11.529713   -5.207815    6.308222
C    -10.606383   -4.001196    6.538417
C     -9.194174   -4.453445    6.906263
C     -8.158449   -3.341072    7.035337
O     -6.885062   -3.959472    7.258767
C     -5.798354   -3.035243    7.325264
C     -4.503327   -3.834804    7.151076
C     -3.251724   -2.961592    7.009063
C     -2.067653   -3.751239    6.438245
O     -0.998563   -2.852885    6.115012
C     -0.297195   -3.224087    4.914742
C     -0.886042   -2.454656    3.732640
C     -0.424184   -2.950873    2.356872
C     -1.030303   -2.116905    1.216578
O     -1.345943   -2.919909    0.074038
C     -2.171444   -2.223055   -0.884066
C     -1.342810   -1.321230   -1.794499
C     -2.146432   -0.504577   -2.807998
C     -1.261322    0.532454   -3.501094
O     -2.048482    1.431166   -4.303519
C     -1.214237    2.442755   -4.868740
C     -2.017613    3.517103   -5.608066
C     -2.619518    4.558059   -4.657713
C     -2.897770    5.903817   -5.338676
O     -3.280096    6.901567   -4.381667
C     -2.174520    7.469336   -3.676825
C     -1.819542    8.858456   -4.202846
C     -0.397002    9.294255   -3.830709
C     -0.083386    9.301659   -2.333418
O      1.317996    9.539758   -2.183139
C      1.825083    9.152221   -0.904423
C      3.348345    9.095799   -0.985162
C      4.003710    8.186580    0.060634
C      3.768273    6.697297   -0.212085
O      4.748107    5.905208    0.462464
C      4.560645    4.504245    0.243573
C      5.706653    3.699424    0.864241
C      6.935471    3.585584   -0.038288
C      8.153929    3.040021    0.706476
O      9.261717    2.926261   -0.189967
C     10.551822    2.983059    0.458682
C     10.962738    4.406716    0.853749
C     12.463363    4.592289    1.128109
C     12.876161    4.389268    2.587796
O     12.319880    5.432212    3.394917
C     12.650372    5.289868    4.779557
C     11.878212    6.343627    5.577846
C     11.782866    6.025933    7.078892
C     10.430091    6.436030    7.683405
O      9.532357    5.320066    7.641173
C      8.175334    5.690408    7.923829
C      7.362292    4.425334    8.205857
C      5.851026    4.681037    8.253580
C      5.069141    3.382251    8.463050
O      3.675068    3.581212    8.201983
C      2.910879    2.393292    8.417586
C      1.729062    2.324061    7.438787
C      2.220923    2.350018    5.993584
C      1.180305    1.980779    4.939392
O      1.849449    1.918302    3.666937
C      1.113831    1.222351    2.662395
C      0.200836    2.159775    1.875740
C     -0.689812    1.367488    0.932283
C     -1.803259    2.153910    0.256952
O     -2.742784    1.201209   -0.229497
C     -4.054244    1.716105   -0.453028
C     -4.200986    2.391109   -1.823471
C     -5.380164    1.788184   -2.594722
C     -5.559504    2.303142   -4.020102
O     -6.814754    1.814001   -4.486878
C     -7.064022    2.047629   -5.867622
C     -8.558093    1.841493   -6.136288
C     -9.038034    0.389576   -5.987156
C    -10.506599    0.294417   -5.548359
O    -10.853735   -1.040894   -5.139769
C    -12.164049   -1.053983   -4.556171
C    -12.470023   -2.346218   -3.789392
C    -11.738552   -2.457060   -2.454231
C    -12.169427   -3.647880   -1.605444
O    -11.324680   -3.739752   -0.451562
C    -11.844490   -3.092400    0.708462
C    -10.788137   -3.001298    1.825243
C     -9.851864   -4.203511    1.839780
C     -8.899376   -4.306392    3.027906
O     -7.965003   -5.360279    2.757592
C     -7.170853   -5.750229    3.871181
C     -7.716026   -7.015203    4.533451
C     -6.925586   -7.346315    5.798879
C     -7.575029   -8.432454    6.657964
O     -7.320069   -8.095480    8.036626
C     -8.359860   -7.517605    8.700925
O     -9.529970   -7.621550    8.365942
N     -7.843716   -6.753008    9.712152
C     -8.512424   -5.792846   10.494878
C     -7.724492   -4.907238   11.238078
C     -8.308782   -3.843941   11.935203
C     -9.696045   -3.654289   11.912335
C    -10.329893   -2.478920   12.622457
C    -10.111553   -1.143720   11.940234
C    -10.643307   -0.887744   10.669696
C    -10.464539    0.357021   10.052144
C     -9.753978    1.372244   10.694281
N     -9.506026    2.635291   10.128767
C     -9.880720    3.104747    8.900367
O    -10.592154    2.555647    8.075218
O     -9.302149    4.326421    8.715739
C     -9.479554    4.859540    7.394790
C     -8.573935    6.078986    7.225302
C     -8.611430    6.599832    5.786497
C     -7.719442    7.821451    5.561331
O     -6.355875    7.467525    5.825912
C     -5.408434    8.214126    5.193943
O     -5.655833    9.131497    4.426033
N     -4.184705    7.747903    5.570588
C     -2.909688    8.150335    5.143085
C     -2.660656    9.159971    4.213224
C     -1.344397    9.451216    3.814601
C     -0.260645    8.737529    4.342464
C      1.162423    8.983071    3.863448
C      1.970145    7.707288    3.705461
C      3.220584    7.552038    4.319214
C      3.887175    6.317283    4.299060
C      3.310625    5.226872    3.657844
N      3.849766    3.934255    3.632459
C      4.955732    3.432829    4.247277
O      5.723291    3.998434    5.006742
O      5.054288    2.125778    3.880677
C      6.134834    1.351660    4.416733
C      5.579499    0.356146    5.428096
C      6.603804   -0.707013    5.802624
C      6.161066   -1.511097    7.018365
O      6.980311   -2.657469    7.191410
C      2.091509    5.398009    2.998266
C      1.436782    6.625431    2.999225
C     -0.519870    7.766707    5.317119
C     -1.826035    7.462319    5.689975
C     -9.224338    1.121787   11.964856
C     -9.400074   -0.122561   12.581788
C    -10.485841   -4.570959   11.207354
C     -9.899121   -5.633060   10.509501
C    -10.423386    1.733650    3.678622
C     -9.271100    1.737330    4.484641
C     -6.855680    1.468360    8.283282
C     -6.054781    2.366720    9.000274
C      5.513929   11.321480    6.682811
C      6.757117   11.685811    6.148703
C      8.727320   10.754909    2.864095
C      9.177903   10.316762    1.612597
C      7.705933    0.425158   -4.413955
C      6.783545   -0.603118   -4.653383
C      5.247066   -4.030186   -2.080563
C      5.537165   -5.301898   -1.590089
C      4.942850   -4.215077    4.339485
C      4.209213   -3.218274    3.688035
C      2.575077   -3.831809    0.485692
C      1.911339   -4.409913   -0.600390
C     14.551690   -0.277897   -1.066838
C     13.215868   -0.079725   -0.703552
C      9.341728   -0.707829    0.970583
C      8.974250   -1.402140    2.131079
H     11.293315   -3.859907    2.006522
H     11.865111   -2.701400   -0.066076
H     10.430141    0.633469   -1.043020
H     10.109307   -0.862563   -1.911036
H     11.734955   -0.955585   -3.624715
H     14.066958   -1.294360   -4.271074
H     16.298634   -1.542257   -3.635542
H     20.111389   -2.730061   -2.463174
H     19.476932   -2.121026   -0.939153
H     17.903333   -4.146647   -0.874572
H     18.639827   -4.724922   -2.352894
H     20.893245   -4.772901   -1.168265
H     20.068879   -4.285692    0.319627
H     20.502619   -6.725417    0.219647
H     19.496012   -6.864019   -1.242234
H     18.364119   -8.468494    0.223419
H     19.150235   -7.911746    1.724380
H     16.891181   -6.935834    2.430878
H     17.008788   -8.705703    2.426530
H     15.820226   -8.870084    0.308999
H     15.899016   -7.147351    0.046248
H     14.325788   -8.504625    2.302901
H     14.453320   -6.746775    2.041203
H     11.762620   -7.771303    1.788105
H     12.449214   -6.183947    1.352049
H     10.899140   -8.108416   -0.450768
H     11.912559   -6.848248   -1.102200
H     10.614338   -5.172765    0.318729
H      9.497981   -6.482430    0.711454
H      8.473968   -5.292172   -1.017385
H      9.163723   -6.713151   -1.854998
H      8.399417   -4.030451   -2.896479
H      9.018956   -5.404433   -3.856691
H     10.237288   -2.621582   -3.655021
H     10.968034   -3.938147   -4.556444
H      8.119646   -2.939499   -5.076310
H      8.993271   -4.078313   -6.055893
H      9.957903   -1.193858   -5.682666
H     10.483848   -2.376298   -6.910907
H      9.500605    0.210117   -7.554152
H      9.604705   -1.035073   -8.822429
H      6.914333   -0.788456   -8.814796
H      7.952981    0.249568   -9.800507
H      7.034398    1.053043   -7.011254
H      7.871749    2.056098   -8.162696
H      5.832654    1.930834   -9.666698
H      5.043937    0.907493   -8.434052
H      3.447994    2.351478   -7.567157
H      3.752055    3.311897   -9.034116
H      4.216149    5.312308   -7.707085
H      4.207369    4.419016   -6.211595
H      1.803623    4.854395   -8.057509
H      1.742410    3.862872   -6.601442
H      0.871515    6.287872   -6.388666
H      2.530000    6.820817   -6.600832
H      0.188782    5.416425   -4.490932
H      1.329593    4.075512   -4.258555
H      2.208367    5.087019   -2.225888
H      1.355869    6.581100   -2.521482
H      0.012975    3.896880   -1.875423
H     -0.842392    5.397678   -2.153225
H      1.058720    4.781152    0.122482
H      0.489954    6.411746   -0.184502
H     -2.639290    5.591146   -0.519874
H     -1.623262    6.969145   -0.059732
H     -2.158825    6.555036    2.362939
H     -3.510911    7.064231    1.348458
H     -3.914472    4.400508    1.154644
H     -4.630058    5.403189    2.381864
H     -1.939957    4.180049    2.999930
H     -3.227504    4.706835    4.105226
H     -3.583495    2.393430    5.125287
H     -1.986200    2.320462    4.371188
H     -2.982357    0.076155    4.891977
H     -2.478888    0.282560    3.223737
H     -4.653516    0.442437    2.376842
H     -5.354446    0.824159    3.953257
H     -4.761571   -1.513360    4.727935
H     -6.009622   -1.415874    3.484937
H     -4.004012   -3.708785    4.158681
H     -5.515278   -3.683321    3.245183
H     -3.253399   -3.894259    1.400507
H     -4.658601   -4.925745    1.557793
H     -3.606484   -6.212661    3.384085
H     -2.204215   -5.179736    3.341533
H     -3.157592   -7.039348    1.111940
H     -1.821458   -5.874297    0.905900
H     -1.806546   -8.895141    0.873958
H     -0.559721   -9.190585    2.082835
H      0.836247   -7.329435    1.010337
H     -0.327762   -7.292974   -0.301887
H      1.342750   -9.732218    0.543883
H      0.114947   -9.781596   -0.702978
H      1.352376   -8.156331   -2.081591
H      2.572118   -7.954332   -0.794175
H      3.794614   -8.405039   -2.730022
H      2.821564   -9.471544   -3.768078
H      5.115418  -10.414934   -1.977595
H      4.255236  -11.417404   -3.119369
H      5.537226   -8.897632   -4.217271
H      5.247112  -10.415469   -5.015335
H      7.233360  -10.561088   -2.748447
H      7.275527  -11.320599   -4.354220
H      9.315918   -9.345086   -2.800517
H      9.615177  -10.502475   -4.126571
H      9.568198   -7.493980   -4.635147
H     10.221845   -8.746338   -5.664633
H     11.352334   -7.910670   -2.942414
H     12.029169   -9.188695   -3.918352
H     12.723618   -7.677767   -5.649623
H     11.765541   -6.335040   -5.026459
H     12.276713   -5.632198   -2.802935
H     13.299357   -4.770631   -3.957281
H     15.259017   -5.048529   -2.601831
H     14.534505   -6.333283   -1.651096
H     13.522790   -3.439901   -1.639469
H     12.909093   -4.730103   -0.649860
H     15.245136   -4.894899    0.429016
H     15.634109   -3.394477   -0.443349
H     15.570895   -1.824132    1.478359
H     15.780253   -3.415139    2.245061
H     13.580441   -2.992337    3.489948
H     15.000822   -2.079009    4.013959
H     12.872670   -0.913201    2.157324
H     14.207579   -0.047067    2.882315
H     11.930364   -1.428407    4.388575
H     13.258167   -0.543596    5.165423
H     11.073258    0.175803    5.990087
H      9.988609    0.056805    4.587601
H     11.084514    2.650192    5.764089
H      9.507743    1.960811    6.144866
H      8.892607    2.149492    3.675163
H     10.413784    2.957437    3.409244
H      8.222466    3.951858    5.294439
H      9.780519    4.734507    5.036871
H      9.089516    6.697008    3.906555
H      7.497380    6.222975    4.539445
H      6.555963    6.276469    2.262612
H      7.239646    7.836437    2.703974
H      8.604570    5.740823    0.945997
H      9.324672    7.243619    1.395744
H      6.823368    6.795489   -0.304798
H      7.387050    8.409406    0.163373
H      7.102836    8.134288   -2.360067
H      8.721243    8.011989   -3.046950
H      8.236019    5.337499   -2.462441
H      8.112913    6.097950   -4.052250
H      5.710284    6.513878   -3.760950
H      5.782773    5.939019   -2.117384
H      6.108909    4.255223   -4.645646
H      6.516346    3.656191   -3.021993
H      4.925798    2.206441   -2.659369
H      3.276602    2.779831   -2.500335
H      4.633082    1.972294   -5.103420
H      3.087398    2.801815   -5.042790
H      3.615642    0.190626   -3.587684
H      2.065350    1.012427   -3.720736
H      3.566591    0.060023   -6.218499
H      2.511763   -1.006330   -5.265129
H      1.072138   -1.304028   -6.928285
H      1.819823   -0.168420   -8.084688
H     -0.258552    1.262820   -7.921890
H     -0.966144    0.086910   -6.827904
H     -0.857466   -1.669621   -8.631813
H     -0.162120   -0.491778   -9.729267
H     -2.956921   -0.339386   -8.446758
H     -2.230521    0.954296   -9.410596
H     -4.570632   -1.208995   -9.995117
H     -3.357769   -2.472358   -9.633749
H     -4.100041   -1.523799  -12.459893
H     -2.930831   -2.755636  -12.062528
H     -4.824366   -4.110227  -10.960728
H     -4.827544   -3.974506  -12.701458
H     -6.521552   -2.122671  -12.570902
H     -6.613498   -2.372116  -10.804847
H     -8.911795   -2.926371  -11.233615
H     -9.207920   -4.548748  -11.864983
H     -8.513424   -3.645656  -14.188607
H     -8.627922   -2.039639  -13.506496
H    -10.903563   -4.079273  -13.742053
H    -10.687329   -2.643299  -14.712944
H    -10.926475   -1.245990  -12.605459
H    -11.344161   -2.756787  -11.733600
H    -13.529985   -2.185099  -11.273506
H    -14.614002   -1.771426  -12.598653
H    -12.397705    0.061575  -11.550506
H    -13.398815    0.394942  -12.940077
H    -15.441964    0.402030  -11.476710
H    -14.270446    1.626967  -11.058917
H    -13.407680    0.145953   -9.200951
H    -14.725767   -1.003834   -9.575073
H    -14.870019   -0.558277   -7.326926
H    -16.474396    0.182580   -7.308131
H    -15.283165    2.440468   -6.855397
H    -13.817942    1.516389   -6.582662
H    -14.998296    0.208331   -4.769879
H    -16.468331    1.143280   -5.078430
H    -15.513034    2.162007   -3.186117
H    -15.065013    3.261406   -4.514342
H    -12.999998    3.993650   -3.357694
H    -13.762833    3.128735   -2.000790
H    -11.036703    2.400383   -3.183934
H    -11.243041    3.471136   -1.799840
H    -12.426738    0.663754   -1.768361
H    -12.150851    1.763595   -0.419261
H     -9.632115    1.588271   -0.941207
H    -10.408639    0.148561   -0.265551
H     -8.310086    0.685886   -3.155381
H     -8.024829    0.064888   -1.544354
H     -8.470443   -2.238465   -2.273908
H     -8.945034   -1.716001   -3.849162
H     -6.102751   -1.720169   -2.726438
H     -6.515960   -0.830044   -4.171416
H     -7.268556   -2.869162   -5.319574
H     -7.159795   -3.791455   -3.826682
H     -4.365664   -1.586894   -4.965022
H     -5.307856   -2.159361   -6.358520
H     -2.863951   -2.451601   -6.706202
H     -3.751943   -3.976179   -6.779463
H     -3.027723   -4.620816   -4.535067
H     -2.310170   -3.062094   -4.252936
H     -1.364215   -5.151923   -6.262696
H     -0.686233   -3.525111   -6.206533
H      0.639135   -5.270482   -2.613329
H      1.755527   -1.685038   -2.617694
H      2.905019   -0.672986   -0.723133
H      2.953690   -1.387392    2.287261
H      4.329082   -1.015934    1.257553
H      6.075865   -2.987103    0.851103
H      7.327804   -4.738570    1.967582
H      6.193631   -6.265056    5.189918
H      8.846572   -9.451787    5.015083
H      9.569044   -8.399699    3.804430
H      8.498333  -10.631913    2.980495
H      6.924327   -9.930512    3.389173
H      8.926681   -8.847813    1.339299
H      7.452892   -8.021763    1.783535
H      7.582131  -10.791730    0.519004
H      6.083656   -9.983495    0.975956
H      7.072503   -8.072968   -2.611651
H      6.621878   -6.707951   -4.483795
H      6.038344   -4.484637   -5.345901
H      4.120446   -2.024437   -3.505307
H      4.917182   -2.360139   -5.003387
H      5.801691   -1.183675   -1.465644
H      7.376877    0.634333   -1.061360
H      8.936080    2.235128   -1.863942
H     11.960186    3.985738   -4.140047
H     10.516779    5.014027   -4.417050
H     10.775676    5.898599   -2.071061
H     12.246645    4.967060   -1.892360
H     13.299023    6.269383   -3.767838
H     11.804152    7.210164   -3.924328
H     13.511120    7.056145   -1.380579
H     13.552663    8.392596   -2.563041
H     10.048201    9.173221   -0.509876
H     12.227751    9.122064    2.525784
H     11.458849    9.904120    4.698773
H      9.816086   10.827430    6.123232
H      9.157249   12.225507    5.303952
H      8.121166    8.591980    5.837516
H      5.962694    7.952775    6.777086
H      3.303590   10.466048    7.635973
H      1.984748    7.008630    9.562189
H      1.500751    6.752400    7.856838
H     -0.396261    8.426698    8.265452
H      0.034361    8.438561    9.956416
H     -0.438680    5.975436   10.122292
H     -0.803479    5.911288    8.413558
H     -2.707162    7.585819    8.803424
H     -2.345338    7.510261   10.524070
H     -4.416788    3.987546   10.092601
H     -5.141312    4.387440    6.423543
H     -6.472187    2.798185    5.182286
H     -7.852290   -0.346580    6.811338
H     -7.045704    0.135949    5.362851
H    -10.010431   -0.954714    6.406934
H    -11.974144   -0.980198    5.006220
H    -12.390525    1.336812    2.076827
H    -14.626867   -2.104845    1.438538
H    -15.877488   -0.916532    1.895970
H    -15.888428   -0.039482   -0.432852
H    -14.619462   -1.158395   -0.895718
H    -17.308188   -2.052628    0.273370
H    -16.058036   -3.103804   -0.402525
H    -18.084700   -2.676679   -1.855907
H    -17.554843   -0.987991   -2.041012
H    -17.778169   -3.358052   -4.047952
H    -17.573923   -1.616169   -4.356400
H    -15.366476   -2.033761   -5.366795
H    -16.666454   -2.859651   -6.237644
H    -14.727788   -4.131714   -4.246042
H    -16.049511   -5.000907   -4.994640
H    -13.689162   -5.247472   -6.022338
H    -15.035723   -4.962105   -7.142054
H    -11.832586   -3.798498   -6.620655
H    -12.573432   -4.436314   -8.111447
H    -12.427765   -1.439785   -7.626312
H    -12.675506   -2.293283   -9.133521
H    -10.090445   -2.223608   -7.516710
H    -10.288024   -3.177506   -8.982346
H    -10.513159   -1.194074  -10.348945
H     -9.121776   -0.937691   -9.286258
H    -10.664388    1.260490  -10.566235
H     -9.312305    1.400444   -9.413140
H    -12.172404    2.431542   -8.973452
H    -10.926416    2.459999   -7.763710
H     -9.551999    3.752974   -9.735270
H    -11.196956    4.111941  -10.280784
H    -11.662677    4.978641   -7.889400
H    -10.492872    5.925755   -8.847635
H     -8.550256    5.670869   -5.981578
H     -9.680690    6.727604   -6.826485
H    -10.430173    4.502033   -4.829549
H    -11.588127    5.492972   -5.677397
H    -11.383609    6.444671   -3.518917
H    -10.593852    7.566175   -4.631128
H     -9.249890    7.390701   -2.629418
H     -8.342376    6.567006   -3.915222
H     -8.057869    6.118432   -1.034500
H     -7.210417    5.167522   -2.287782
H     -8.285788    3.110757   -1.495706
H     -9.255109    3.998052   -0.331341
H     -7.098513    4.743704    0.805154
H     -6.215563    3.693427   -0.297132
H     -8.381803    2.792428    1.660547
H     -6.632796    2.670345    1.950659
H     -8.789383    0.509585    1.734832
H     -7.131268    0.417872    2.334528
H     -7.848507   -1.757955    1.717488
H     -8.458872   -1.252403    0.159434
H     -6.244926   -0.972893   -0.740448
H     -5.502337   -1.055054    0.840585
H     -5.132660   -3.175607   -0.263874
H     -6.254870   -3.401600    1.102640
H     -6.013533   -5.337880   -1.011287
H     -7.145090   -5.317537    0.350648
H     -7.672282   -5.703280   -2.603318
H     -8.953936   -4.988350   -1.653310
H     -9.038648   -7.540838   -1.977482
H     -7.633572   -7.684738   -0.940923
H    -10.266631   -6.339378   -0.154761
H     -8.874432   -6.652025    0.923502
H    -11.825419   -7.536717    0.793096
H    -11.570558   -9.221056    1.221254
H    -10.102620   -7.024286    2.752142
H    -10.293082   -8.700104    3.186770
H    -12.586294   -6.677245    2.938943
H    -12.759763   -8.368609    3.428051
H    -12.868923   -7.074435    5.407185
H    -11.263757   -7.839657    5.449028
H    -11.405643   -5.940079    7.114435
H    -12.570445   -4.865806    6.305117
H    -10.576783   -3.382161    5.635887
H    -11.005452   -3.390031    7.355957
H     -8.843500   -5.174882    6.171127
H     -9.231957   -4.998019    7.848775
H     -8.397989   -2.679533    7.874015
H     -8.118290   -2.760609    6.107669
H     -5.816555   -2.521650    8.291245
H     -5.896415   -2.294872    6.526144
H     -4.616828   -4.477471    6.269479
H     -4.382312   -4.524342    7.995467
H     -3.450546   -2.109425    6.352197
H     -2.978039   -2.527158    7.978078
H     -1.698316   -4.472911    7.174300
H     -2.387594   -4.307411    5.552931
H      0.750539   -2.934670    5.047940
H     -0.321309   -4.309879    4.764609
H     -0.640791   -1.393365    3.852035
H     -1.972720   -2.504901    3.794168
H      0.665975   -2.877763    2.313754
H     -0.663455   -4.008669    2.226389
H     -0.292841   -1.370963    0.916102
H     -1.936866   -1.610531    1.560046
H     -2.661076   -2.991446   -1.491424
H     -2.962621   -1.665238   -0.370377
H     -0.727481   -0.654664   -1.187842
H     -0.643021   -1.945316   -2.342850
H     -2.597528   -1.148501   -3.562756
H     -2.992312   -0.020910   -2.324614
H     -0.724533    1.116140   -2.743915
H     -0.528697    0.027675   -4.140958
H     -0.529739    1.973628   -5.575839
H     -0.611894    2.901461   -4.080069
H     -1.333590    4.024623   -6.299347
H     -2.815894    3.060154   -6.204084
H     -1.955461    4.709274   -3.807819
H     -3.543835    4.182406   -4.216562
H     -3.731770    5.789757   -6.039504
H     -2.033083    6.258175   -5.912577
H     -1.300454    6.820715   -3.734834
H     -2.467432    7.539658   -2.623664
H     -1.916786    8.873275   -5.295486
H     -2.548442    9.586149   -3.825549
H     -0.205424   10.293550   -4.241401
H      0.319556    8.633281   -4.337504
H     -0.639891   10.092857   -1.820242
H     -0.344914    8.338055   -1.887181
H      1.500584    9.876116   -0.148574
H      1.429667    8.174655   -0.636305
H      3.659322    8.775660   -1.987347
H      3.736581   10.114891   -0.869992
H      3.651135    8.437630    1.068464
H      5.078109    8.388986    0.062593
H      2.777717    6.412778    0.142876
H      3.827630    6.501226   -1.285431
H      4.486611    4.296161   -0.823294
H      3.616436    4.206992    0.709862
H      6.002721    4.153300    1.812003
H      5.351023    2.683324    1.074654
H      7.187662    4.555619   -0.470066
H      6.702682    2.938704   -0.886940
H      7.929651    2.058687    1.128959
H      8.404942    3.696872    1.524245
H     10.572045    2.294191    1.308526
H     11.269272    2.610416   -0.279078
H     10.674001    5.076727    0.038219
H     10.393522    4.735767    1.723583
H     12.718399    5.624444    0.854021
H     13.052222    3.933072    0.479937
H     13.968031    4.437475    2.663583
H     12.547937    3.409500    2.947950
H     12.374462    4.285229    5.105864
H     13.729612    5.420196    4.917661
H     12.360696    7.319964    5.440374
H     10.883899    6.473042    5.147159
H     11.952006    4.958330    7.260861
H     12.583742    6.574977    7.587507
H     10.004772    7.298337    7.158277
H     10.571503    6.703240    8.737056
H      8.137029    6.359837    8.790753
H      7.778327    6.213581    7.048746
H      7.698597    3.989554    9.154931
H      7.586260    3.670974    7.443950
H      5.522433    5.160662    7.324603
H      5.609268    5.384301    9.059058
H      5.445426    2.617463    7.778176
H      5.201383    3.028391    9.492227
H      3.530197    1.496010    8.294106
H      2.540269    2.407694    9.447728
H      1.058130    3.174354    7.602117
H      1.162070    1.406755    7.629944
H      2.601579    3.351939    5.784768
H      3.068492    1.667234    5.884905
H      0.388883    2.734792    4.895805
H      0.742883    1.006373    5.182646
H      1.847373    0.788463    1.973756
H      0.558138    0.389590    3.104464
H     -0.395797    2.752445    2.570616
H      0.811377    2.863313    1.305975
H     -0.068651    0.889857    0.167494
H     -1.158192    0.563411    1.502155
H     -2.277508    2.811828    0.976917
H     -1.428180    2.740123   -0.581510
H     -4.346825    2.384961    0.359064
H     -4.717826    0.852081   -0.387073
H     -3.280231    2.301791   -2.397858
H     -4.368387    3.464591   -1.684372
H     -6.304325    1.956646   -2.033537
H     -5.268988    0.698175   -2.643079
H     -4.756245    1.938200   -4.665527
H     -5.590251    3.396133   -4.034770
H     -6.793973    3.079104   -6.121884
H     -6.459044    1.360619   -6.469056
H     -8.772020    2.180127   -7.151707
H     -9.116679    2.482431   -5.444898
H     -8.889741   -0.148963   -6.928015
H     -8.410408   -0.138440   -5.275783
H    -11.175671    0.601580   -6.354813
H    -10.661157    0.969911   -4.706704
H    -12.287280   -0.206278   -3.879106
H    -12.889874   -0.943244   -5.368457
H    -13.543914   -2.363828   -3.585885
H    -12.218668   -3.215768   -4.403044
H    -11.899541   -1.551958   -1.865608
H    -10.667451   -2.538390   -2.633332
H    -12.035519   -4.573285   -2.174415
H    -13.224134   -3.581477   -1.316969
H    -12.697439   -3.679319    1.066946
H    -12.193736   -2.085564    0.459343
H    -11.292845   -2.886121    2.790361
H    -10.196000   -2.093925    1.672690
H    -10.466672   -5.105936    1.813340
H     -9.259739   -4.201978    0.919681
H     -9.459055   -4.530954    3.932813
H     -8.346176   -3.375729    3.177116
H     -6.171480   -5.973903    3.485284
H     -7.068905   -4.923453    4.580920
H     -7.677007   -7.852673    3.827265
H     -8.773477   -6.875728    4.769887
H     -6.797606   -6.437111    6.395188
H     -5.910831   -7.662106    5.525107
H     -7.104387   -9.401298    6.462706
H     -8.643800   -8.542999    6.448555
H     -6.836249   -6.793028    9.766422
H     -6.642587   -5.005382   11.248876
H     -7.670611   -3.152595   12.479491
H    -11.411571   -2.635772   12.729589
H     -9.942491   -2.449259   13.649776
H    -11.207989   -1.656135   10.146590
H    -10.896725    0.499592    9.066161
H     -8.945666    3.294183   10.649621
H     -9.215813    4.100017    6.649897
H    -10.528936    5.147647    7.263235
H     -7.550080    5.815422    7.512453
H     -8.888092    6.863598    7.924392
H     -9.642702    6.855676    5.516723
H     -8.284547    5.796339    5.114752
H     -8.005664    8.634853    6.236337
H     -7.845004    8.156465    4.525294
H     -4.231079    7.002016    6.266299
H     -3.472183    9.728790    3.768589
H     -1.181997   10.228487    3.071249
H      1.647349    9.656365    4.581333
H      1.151546    9.496133    2.893305
H      3.678065    8.379479    4.853233
H      4.837739    6.227968    4.816389
H      3.303900    3.206681    3.181328
H      6.904512    1.973023    4.880650
H      6.594895    0.824811    3.573660
H      4.678738   -0.122826    5.023643
H      5.255157    0.900930    6.319956
H      6.760939   -1.377219    4.950306
H      7.576284   -0.246457    6.014159
H      5.127086   -1.853953    6.909910
H      6.224098   -0.903275    7.926800
H      7.904891   -2.405959    7.000913
H      1.619986    4.564767    2.490666
H      0.473054    6.707620    2.502271
H      0.294411    7.198499    5.763448
H     -1.980232    6.659683    6.403381
H     -8.669721    1.890443   12.495816
H     -8.981299   -0.284065   13.572164
H    -11.567488   -4.460306   11.178365
H    -10.553028   -6.308123    9.965217
H    -10.518971    2.492343    2.905643
H     -8.514238    2.490854    4.295201
H     -7.316780    0.638175    8.817896
H     -5.926781    2.205540   10.067530
H      4.796735   12.106576    6.909418
H      6.969646   12.740517    5.984469
H      7.744400   11.213996    2.940455
H      8.525415   10.440317    0.751993
H      8.237320    0.842988   -5.260557
H      6.621928   -0.925638   -5.679662
H      4.880398   -3.286008   -1.385372
H      5.394749   -5.478838   -0.529219
H      4.608473   -4.555497    5.316029
H      3.315949   -2.822349    4.164953
H      2.784535   -4.462601    1.347634
H      1.628291   -5.455751   -0.533726
H     15.314314   -0.077514   -0.322003
H     12.989182    0.275521    0.297732
H      8.776968    0.168512    0.684623
H      8.115711   -1.061057    2.702734
