365

O     -7.965238   -0.598390   -2.700652
C     -7.192014   -0.363157   -3.554315
N     -6.409013   -0.127339   -4.394600
C     -5.512146    0.988831   -4.068748
C     -4.220666    0.822717   -4.869662
C     -3.218877    1.926594   -4.528391
C     -1.920354    1.860496   -5.337430
C     -1.100161    0.591045   -5.127629
N     -0.629856    0.433705   -3.770503
C      0.604461   -0.042901   -3.454822
O      1.484786   -0.343761   -4.246022
O      0.710093   -0.128959   -2.104663
C      1.987005   -0.566647   -1.605482
C      2.963440    0.603849   -1.570592
C      4.301491    0.229463   -0.940750
C      5.253178    1.422789   -0.961496
O      6.534962    1.105597   -0.423419
C      6.546241    1.011407    1.001733
C      7.985242    1.158646    1.485996
C      8.870922   -0.034809    1.109184
C      9.162665   -0.939767    2.301945
O      7.959517   -1.537943    2.785636
C      8.215935   -2.286597    3.979747
C      7.001854   -3.152280    4.310561
C      7.276185   -4.147662    5.445358
C      7.067616   -3.586987    6.851989
O      7.761793   -2.354141    6.989548
C      7.745212   -1.806488    8.302008
C      6.366095   -1.378113    8.805875
C      5.458982   -0.685777    7.790562
C      6.096694    0.453326    7.010497
O      5.084452    1.004176    6.163872
C      5.633641    1.855511    5.164608
C      4.513557    2.394806    4.279956
C      3.717591    1.280048    3.596000
C      2.813928    1.839655    2.501249
O      2.135240    0.786094    1.817484
C      0.937154    0.365721    2.467291
C     -0.248482    0.564563    1.525136
C     -0.393258    2.015105    1.074941
C     -1.693200    2.254027    0.320008
O     -1.703497    3.619795   -0.094819
C     -2.855391    3.941761   -0.869862
C     -2.585013    5.232305   -1.638641
C     -1.643282    5.073076   -2.838285
C     -0.348702    4.326128   -2.543888
O      0.491466    4.379016   -3.699134
C      1.711572    3.677811   -3.457558
C      2.592457    3.692635   -4.700513
C      1.943752    2.954569   -5.869186
C      2.913971    2.764772   -7.025550
O      2.252761    2.036895   -8.066174
C      3.125327    1.119474   -8.730444
C      3.182564   -0.220960   -7.991268
C      1.821369   -0.913716   -7.997368
C      1.826381   -2.253236   -7.269067
O      0.524672   -2.824331   -7.411206
C      0.397164   -4.124345   -6.837462
C      0.205346   -4.090601   -5.319910
C     -1.029170   -3.287633   -4.912306
C     -1.194846   -3.216538   -3.397812
O     -2.279794   -2.336288   -3.089150
C     -2.450746   -2.181614   -1.680718
C     -3.622617   -1.233849   -1.444056
C     -3.938556   -1.081734    0.042605
C     -5.239559   -0.321062    0.285578
O     -5.122206    1.026191   -0.174155
C     -6.350719    1.750309   -0.054517
C     -6.665389    2.189154    1.378660
C     -5.609891    3.149425    1.932835
C     -5.937038    3.637103    3.341780
O     -5.872548    2.539705    4.247397
C     -6.026973    2.916410    5.617724
C     -4.720333    3.458380    6.194743
C     -4.819349    3.849457    7.670165
C     -4.897329    2.669957    8.636403
O     -3.717126    1.879712    8.515481
C     -3.571790    0.965447    9.599555
C     -2.331962    0.097025    9.399863
C     -1.043822    0.917179    9.260432
C      0.206636    0.039332    9.255924
O      0.112514   -0.944135    8.226821
C      1.163602   -1.907739    8.314719
C      0.908846   -3.004674    7.287224
C      1.190228   -2.572634    5.842652
C      2.679759   -2.444341    5.505450
O      3.446625   -3.548604    5.989338
C      3.274851   -4.741111    5.222723
C      3.572445   -5.930548    6.130861
C      3.247219   -7.292616    5.509914
C      1.797991   -7.440222    5.043533
O      0.923224   -6.988881    6.075138
C     -0.381786   -6.652005    5.610095
C     -1.274411   -7.888347    5.515789
C     -2.629532   -7.557971    4.892561
C     -2.562521   -7.518122    3.368456
O     -3.723855   -6.850129    2.864503
C     -3.841878   -7.034601    1.450009
C     -4.773265   -5.967989    0.887667
C     -4.986307   -6.164027   -0.608455
C     -5.698705   -4.980521   -1.248300
O     -5.874095   -5.281037   -2.630540
C     -6.160016   -4.115981   -3.400284
C     -6.437824   -4.516567   -4.845372
C     -5.274589   -5.301211   -5.463986
C     -5.521953   -5.617633   -6.936741
O     -5.552755   -4.412604   -7.716414
C     -4.344689   -3.964961   -8.140195
O     -3.273797   -4.514832   -7.935038
N     -4.520915   -2.800320   -8.821243
C     -3.424221   -2.032860   -9.364833
C     -2.875353   -1.051267   -8.333192
C     -1.653787   -0.276775   -8.828174
C     -1.964270    0.725224   -9.940269
C     -0.748205    1.585888  -10.298053
N     -0.400962    2.547575   -9.277280
C     -1.104577    3.697458   -9.083788
O     -2.121521    4.008177   -9.688705
O     -0.511444    4.449951   -8.122803
C     -1.202363    5.673851   -7.842459
C     -0.437227    6.485030   -6.785871
C      0.984548    6.844890   -7.257688
C      1.473647    8.213951   -6.770117
C      0.983406    8.583061   -5.365434
C      1.685444    7.733630   -4.290720
O      1.214485    8.112850   -2.989161
C      1.748310    7.386895   -1.976847
O      2.691437    6.617104   -2.072105
N      1.039730    7.628233   -0.839907
C      1.262046    6.897647    0.386630
C      0.055733    7.005060    1.313525
C      0.154658    6.048032    2.502002
C     -1.052158    6.210375    3.430953
C     -1.026914    5.237287    4.604984
N     -1.399792    3.895974    4.226087
C     -1.167914    2.828748    5.041310
O     -0.529884    2.870543    6.081553
O     -1.778352    1.732221    4.527441
C     -1.760926    0.590061    5.399761
C     -2.487880   -0.586680    4.729181
C     -2.417357   -1.860625    5.589174
C     -3.765766   -2.303813    6.146290
C     -4.855481   -2.471757    5.073784
C     -4.922585   -3.904815    4.525031
O     -3.723005   -4.251150    3.848288
C     -4.717197   -1.449056    3.933118
C     -3.928721   -0.213167    4.348972
C     -0.555084    8.518934   -5.270559
C     -1.227299    7.737222   -6.400705
H     -5.273872    1.021018   -2.997637
H     -5.994627    1.938048   -4.333569
H     -4.447591    0.842551   -5.942004
H     -3.794151   -0.162502   -4.652072
H     -3.687901    2.900759   -4.714663
H     -2.987933    1.891068   -3.459233
H     -2.163768    1.953302   -6.402417
H     -1.304627    2.729689   -5.082589
H     -0.243400    0.596176   -5.805999
H     -1.697504   -0.288053   -5.372862
H     -1.273839    0.510181   -2.998712
H      1.818400   -0.949913   -0.594011
H      2.371860   -1.402013   -2.202513
H      2.508087    1.438634   -1.023513
H      3.130785    0.970982   -2.589818
H      4.758406   -0.608935   -1.480053
H      4.148302   -0.117882    0.086431
H      4.827688    2.287579   -0.438908
H      5.419774    1.731287   -1.999784
H      5.952707    1.825379    1.431157
H      6.120314    0.053407    1.315119
H      8.411630    2.056525    1.021138
H      7.994729    1.322755    2.569208
H      9.828548    0.342966    0.731328
H      8.411980   -0.620630    0.304524
H      9.853038   -1.732131    1.989484
H      9.639435   -0.360885    3.102421
H      8.435801   -1.580307    4.784712
H      9.091717   -2.927901    3.823794
H      6.132814   -2.522374    4.535291
H      6.732239   -3.716635    3.408514
H      8.303540   -4.521227    5.356775
H      6.619428   -5.016439    5.324268
H      7.439926   -4.307962    7.588757
H      5.998885   -3.442059    7.027501
H      8.204609   -2.514186    9.002322
H      8.399365   -0.927518    8.277297
H      5.834052   -2.265568    9.171483
H      6.501825   -0.728200    9.678976
H      5.082359   -1.421299    7.073613
H      4.564620   -0.315782    8.308230
H      6.929470    0.086565    6.401885
H      6.461098    1.233895    7.686588
H      6.349433    1.293488    4.553309
H      6.159008    2.689502    5.643709
H      4.952721    3.061650    3.528808
H      3.823290    2.992420    4.887719
H      3.117105    0.734862    4.333743
H      4.394459    0.538195    3.155880
H      3.426784    2.352074    1.752114
H      2.103874    2.578541    2.891810
H      1.041588   -0.699400    2.699922
H      0.771106    0.894240    3.412748
H     -0.120285   -0.065921    0.638590
H     -1.164389    0.235987    2.022546
H      0.451582    2.303551    0.436959
H     -0.353791    2.684801    1.939505
H     -1.743444    1.600594   -0.558271
H     -2.555361    2.060783    0.965439
H     -3.111645    3.132261   -1.559707
H     -3.692771    4.092146   -0.183574
H     -3.535891    5.636814   -2.004609
H     -2.156805    5.976917   -0.959354
H     -1.405899    6.066699   -3.235460
H     -2.171847    4.561980   -3.650597
H      0.170714    4.781754   -1.695546
H     -0.559747    3.275133   -2.322073
H      1.485192    2.645839   -3.176497
H      2.246408    4.147173   -2.626001
H      2.797849    4.725984   -5.000642
H      3.551814    3.223517   -4.452435
H      1.049794    3.485050   -6.212248
H      1.601342    1.968804   -5.542669
H      3.226538    3.731691   -7.434175
H      3.807339    2.236118   -6.672004
H      4.126199    1.553319   -8.842208
H      2.727649    0.966245   -9.739567
H      3.500422   -0.068504   -6.953848
H      3.924558   -0.865881   -8.475542
H      1.494019   -1.070368   -9.032675
H      1.068430   -0.265550   -7.537807
H      2.569811   -2.922157   -7.717134
H      2.064013   -2.110714   -6.211118
H      1.264052   -4.740251   -7.103496
H     -0.479118   -4.591271   -7.299535
H      0.115547   -5.117913   -4.948045
H      1.089489   -3.650608   -4.845138
H     -0.955142   -2.275992   -5.315783
H     -1.932859   -3.721758   -5.356818
H     -0.277367   -2.839154   -2.933026
H     -1.410137   -4.213286   -2.995681
H     -2.655283   -3.160425   -1.232315
H     -1.536895   -1.769727   -1.238318
H     -4.501682   -1.607674   -1.981723
H     -3.393464   -0.257075   -1.885783
H     -4.023581   -2.072972    0.502893
H     -3.109134   -0.559150    0.531651
H     -5.450059   -0.320230    1.357005
H     -6.065645   -0.822180   -0.232115
H     -6.258093    2.636552   -0.692261
H     -7.175607    1.154209   -0.461478
H     -6.746072    1.316762    2.034837
H     -7.643097    2.685589    1.384151
H     -4.636999    2.646554    1.946853
H     -5.532281    4.019589    1.271879
H     -6.938876    4.079789    3.372937
H     -5.207753    4.403683    3.620620
H     -6.844531    3.639122    5.721490
H     -6.320973    2.010050    6.155836
H     -3.923351    2.725016    6.041389
H     -4.412344    4.345573    5.630553
H     -5.682659    4.507140    7.822978
H     -3.922140    4.431506    7.916317
H     -4.979851    3.060923    9.657588
H     -5.773615    2.045876    8.433709
H     -3.483235    1.525183   10.537991
H     -4.458786    0.323855    9.656900
H     -2.244527   -0.593892   10.246409
H     -2.466842   -0.507531    8.496774
H     -0.967361    1.640021   10.080817
H     -1.082871    1.486687    8.326878
H      0.306850   -0.451307   10.231571
H      1.094994    0.657109    9.083085
H      1.152240   -2.356349    9.314929
H      2.131818   -1.421155    8.160230
H     -0.142626   -3.310277    7.350456
H      1.505853   -3.886075    7.541562
H      0.737772   -3.320557    5.181364
H      0.690158   -1.625743    5.615168
H      3.075723   -1.541684    5.978978
H      2.828390   -2.327750    4.425387
H      2.258948   -4.803322    4.828505
H      3.969750   -4.717545    4.376905
H      3.021185   -5.814982    7.072707
H      4.629985   -5.908351    6.420301
H      3.448311   -8.056306    6.271333
H      3.921352   -7.494559    4.669801
H      1.648790   -6.863307    4.123582
H      1.584875   -8.491115    4.821272
H     -0.810077   -5.959686    6.343825
H     -0.320034   -6.104498    4.663397
H     -1.424131   -8.281214    6.529189
H     -0.779481   -8.690394    4.956533
H     -3.015522   -6.612729    5.291530
H     -3.361210   -8.322264    5.182648
H     -1.680354   -6.968041    3.024673
H     -2.513845   -8.541033    2.975784
H     -4.240301   -8.037477    1.261676
H     -2.857769   -6.948631    0.973660
H     -4.342725   -4.978371    1.085749
H     -5.733677   -5.991059    1.417077
H     -5.556605   -7.083403   -0.790639
H     -4.022544   -6.306888   -1.114221
H     -5.094557   -4.074715   -1.127683
H     -6.680363   -4.817650   -0.790769
H     -7.035415   -3.605100   -2.984396
H     -5.301439   -3.436763   -3.363043
H     -7.336893   -5.143992   -4.877094
H     -6.645051   -3.613020   -5.429584
H     -5.132760   -6.243051   -4.921966
H     -4.354158   -4.715458   -5.357034
H     -4.765990   -6.313285   -7.320424
H     -6.492664   -6.109572   -7.062086
H     -5.469196   -2.460848   -8.888957
H     -2.637508   -2.719403   -9.696899
H     -3.811975   -1.504117  -10.240703
H     -2.589678   -1.603983   -7.429440
H     -3.662834   -0.351885   -8.028250
H     -0.894443   -0.984330   -9.177168
H     -1.225642    0.258952   -7.977054
H     -2.274225    0.180325  -10.839191
H     -2.805623    1.361343   -9.642117
H      0.132058    0.959828  -10.476572
H     -0.959184    2.138854  -11.220589
H      0.441383    2.421893   -8.715920
H     -1.301020    6.261204   -8.764260
H     -2.203856    5.433595   -7.464319
H     -0.336438    5.851760   -5.895000
H      1.047110    6.832868   -8.353099
H      1.676194    6.066705   -6.912312
H      2.568688    8.249381   -6.818775
H      1.116796    8.979503   -7.472204
H      1.267372    9.625670   -5.164614
H      1.476010    6.673194   -4.449324
H      2.768582    7.896826   -4.343985
H      0.313002    8.325393   -0.912650
H      1.469689    5.850873    0.136917
H      2.157021    7.310518    0.864601
H     -0.039789    8.039421    1.667201
H     -0.859755    6.783644    0.753245
H      1.078202    6.243623    3.059844
H      0.210100    5.017179    2.135598
H     -1.982247    6.086066    2.862510
H     -1.051531    7.233293    3.827125
H     -1.753575    5.558322    5.360306
H     -0.042335    5.221587    5.085810
H     -1.994530    3.719474    3.428024
H     -0.720457    0.316419    5.607371
H     -2.262609    0.847458    6.337832
H     -1.955823   -0.802350    3.794758
H     -1.722942   -1.724339    6.422662
H     -1.996740   -2.671617    4.982798
H     -3.644398   -3.228884    6.722454
H     -4.102693   -1.545758    6.866136
H     -5.816505   -2.288051    5.573558
H     -5.079319   -4.620255    5.339417
H     -5.754725   -4.001964    3.819261
H     -3.837819   -5.173820    3.536121
H     -5.719004   -1.151008    3.601567
H     -4.226832   -1.897077    3.061062
H     -4.432314    0.275042    5.191858
H     -3.919597    0.506100    3.521625
H     -0.870546    8.096822   -4.310453
H     -0.955603    9.541043   -5.284583
H     -1.336744    8.388454   -7.277600
H     -2.243643    7.468159   -6.088806
