319

C      3.856440   -8.434925   -2.278677
C      3.054466   -9.318136   -1.304113
C      1.720671   -9.656614   -2.005014
C      2.751043   -8.537653    0.000467
C      3.718578   -8.827134    1.163126
N      3.777648   -7.739567    2.126260
C      4.270091   -6.496030    1.868335
O      4.626126   -6.084582    0.775087
O      4.319791   -5.803156    3.032881
C      4.963921   -4.521269    2.965075
C      3.920997   -3.423022    2.791267
C      4.583418   -2.068340    2.569029
C      3.580531   -0.923922    2.579873
O      4.250380    0.245757    2.114574
C      3.422937    1.404977    2.207365
C      4.040877    2.538772    1.395111
C      5.415832    3.003451    1.883714
C      5.370287    3.959648    3.073352
O      4.864668    3.308801    4.237369
C      4.922219    4.138507    5.397237
C      6.281651    4.073197    6.097782
C      6.489950    2.810022    6.945163
C      6.483242    1.503308    6.161568
O      7.532929    1.515669    5.194855
C      7.391519    0.429426    4.280060
C      8.446733    0.564824    3.186249
C      8.225225   -0.430953    2.049214
C      8.631660   -1.861778    2.404496
O      7.859444   -2.827863    1.693167
C      8.115239   -2.861813    0.288970
C      7.135564   -3.850926   -0.330216
C      7.240867   -3.896863   -1.848089
C      6.157009   -4.786813   -2.447230
O      6.266950   -4.715910   -3.868223
C      5.275003   -5.473750   -4.556925
C      3.903864   -4.799873   -4.516336
C      2.908615   -5.501226   -5.442634
C      1.519128   -4.862904   -5.395117
O      0.978418   -4.830937   -4.076297
C      0.448426   -6.069739   -3.611538
C     -1.007004   -6.234793   -4.042511
C     -1.644361   -7.528975   -3.524096
C     -1.811879   -7.573978   -2.006639
O     -2.668000   -6.511388   -1.599879
C     -2.135990   -5.759075   -0.511347
C     -3.119550   -4.643262   -0.184635
C     -2.577801   -3.712153    0.899474
C     -3.570031   -2.612223    1.263546
O     -3.897696   -1.873869    0.091616
C     -4.674519   -0.716839    0.380053
C     -5.175843   -0.110371   -0.925718
C     -4.081898    0.277898   -1.927216
C     -3.184719    1.409536   -1.438029
O     -2.161012    0.888563   -0.591081
C     -1.349790    1.934610   -0.051454
C     -0.185507    1.309741    0.706160
C     -0.596334    0.340109    1.820715
C     -1.351960    1.003538    2.967121
O     -0.508638    1.977544    3.581433
C     -1.182435    2.681425    4.620485
C     -0.271961    3.751080    5.224384
C      0.100048    4.860009    4.235467
C      1.312702    4.513901    3.374590
O      1.580859    5.520870    2.394871
C      0.671064    5.466098    1.291832
C      1.284457    6.221638    0.119278
C      0.571619    5.977035   -1.213745
C     -0.865442    6.486141   -1.265678
O     -1.717628    5.650626   -0.478862
C     -3.076090    6.085817   -0.565530
C     -3.954114    5.242112    0.353153
C     -3.567114    5.386719    1.824642
C     -4.512592    4.609038    2.735086
O     -4.127099    4.849387    4.089103
C     -4.887150    4.117825    5.050805
C     -6.320789    4.630054    5.161205
C     -7.050905    4.043369    6.371450
C     -8.494305    4.538756    6.491511
O     -9.312730    3.954145    5.465018
C     -9.524764    4.712028    4.362973
O     -9.133890    5.856171    4.195074
N    -10.192897    3.969606    3.437914
C    -10.381234    4.441330    2.086262
C    -10.959877    3.377435    1.106916
C    -12.437309    3.145347    1.483589
C    -10.882403    3.958915   -0.329422
C     -9.540998    3.634441   -0.990883
N     -9.379215    4.360187   -2.235311
C     -8.155196    4.609926   -2.778189
O     -7.085903    4.291734   -2.278207
O     -8.311267    5.235528   -3.972355
C     -7.086645    5.483481   -4.683631
C     -6.703376    4.243745   -5.492925
C     -5.195709    4.023020   -5.601712
C     -4.578810    3.607142   -4.267560
O     -3.254810    3.090212   -4.459948
C     -2.254391    4.001391   -4.458720
O     -2.401986    5.213503   -4.429449
N     -1.064932    3.340231   -4.476649
C      0.221127    4.003689   -4.462441
C      1.001673    3.883312   -5.796940
C      0.118285    4.501859   -6.915266
C      1.307820    2.417453   -6.195869
C      2.469051    1.742644   -5.456091
N      2.101810    1.299578   -4.130581
C      2.792947    0.356423   -3.436054
O      3.779296   -0.242151   -3.832060
O      2.169362    0.168951   -2.252537
C      2.576402   -0.968141   -1.493143
C      1.849194   -2.227070   -1.961105
C      0.315571   -2.167393   -1.854295
C     -0.385916   -1.471660   -3.023651
O     -0.510835   -0.065940   -2.826087
C      3.732853    2.616619   -5.474371
C      3.536945    4.081548   -5.026170
C      3.452974    4.198776   -3.493614
C      4.794150    4.884434   -5.447262
C      2.316120    4.711146   -5.743099
C     -9.382166    2.120395   -1.218404
C     -9.970644    1.239354   -0.086089
C    -11.301869    0.611549   -0.542063
C     -8.999247    0.072201    0.198482
C    -10.143284    2.054778    1.218942
C      5.116903   -9.245460    0.697473
C      5.099053  -10.532419   -0.162743
C      5.169066  -11.771031    0.766380
C      6.334602  -10.564241   -1.108801
N      7.577381  -10.473115   -0.323820
C      8.553102  -10.508911   -0.974668
O      9.525593  -10.552436   -1.633515
C      3.786995  -10.644935   -0.995272
H      3.261276   -7.574703   -2.607634
H      4.143006   -8.996980   -3.174471
H      4.766255   -8.029776   -1.831316
H      1.892065  -10.181592   -2.952175
H      1.151329   -8.748128   -2.225021
H      1.091484  -10.298413   -1.377834
H      2.706380   -7.464371   -0.223443
H      1.740721   -8.780877    0.359464
H      3.296660   -9.665088    1.733322
H      3.550697   -7.912981    3.095218
H      5.720408   -4.498337    2.175108
H      5.496172   -4.381598    3.912911
H      3.276127   -3.397126    3.678011
H      3.263006   -3.660332    1.946168
H      5.342721   -1.882383    3.339428
H      5.119500   -2.071592    1.612216
H      3.200060   -0.762493    3.595044
H      2.739587   -1.145310    1.913723
H      3.285685    1.675037    3.257756
H      2.441693    1.175123    1.784837
H      4.165448    2.180395    0.364984
H      3.350935    3.388209    1.353925
H      5.908695    3.528695    1.056305
H      6.036461    2.136196    2.125211
H      4.735780    4.821635    2.835254
H      6.385404    4.324201    3.263761
H      4.682305    5.174143    5.127352
H      4.136359    3.799162    6.080289
H      6.357420    4.934385    6.772982
H      7.098523    4.161430    5.374372
H      5.721563    2.764125    7.726326
H      7.458042    2.908781    7.452044
H      5.509375    1.347452    5.684608
H      6.655304    0.666919    6.849398
H      7.509988   -0.512890    4.824817
H      6.391037    0.456262    3.837329
H      9.450327    0.453989    3.614385
H      8.406443    1.584253    2.782218
H      8.820432   -0.109093    1.185277
H      7.178768   -0.395992    1.723231
H      8.458216   -2.063654    3.465330
H      9.699427   -2.027144    2.218507
H      7.963438   -1.870713   -0.150716
H      9.149212   -3.178782    0.113161
H      7.305101   -4.848860    0.093673
H      6.115589   -3.570060   -0.040532
H      7.146761   -2.886772   -2.265961
H      8.229765   -4.259483   -2.154199
H      6.289057   -5.824248   -2.120272
H      5.173229   -4.432403   -2.124428
H      5.234305   -6.493087   -4.156878
H      5.610777   -5.549594   -5.596677
H      3.520844   -4.806970   -3.489918
H      4.005534   -3.744397   -4.797560
H      2.846819   -6.558299   -5.161362
H      3.277232   -5.466742   -6.474733
H      1.591473   -3.822382   -5.732285
H      0.835396   -5.375393   -6.080484
H      1.056537   -6.915885   -3.945362
H      0.515410   -6.036126   -2.520081
H     -1.586631   -5.360351   -3.720972
H     -1.063852   -6.232547   -5.137747
H     -1.052135   -8.390559   -3.851049
H     -2.633980   -7.621108   -3.987443
H     -0.841044   -7.540963   -1.499037
H     -2.296365   -8.515229   -1.723771
H     -1.996328   -6.415168    0.355819
H     -1.167493   -5.335235   -0.800451
H     -3.334708   -4.079803   -1.101868
H     -4.075323   -5.080526    0.130446
H     -2.326307   -4.285982    1.798947
H     -1.653109   -3.249404    0.533058
H     -3.122355   -1.949040    2.011977
H     -4.482920   -3.049676    1.684144
H     -4.074219    0.002260    0.947225
H     -5.538830   -0.998211    0.993153
H     -5.798019    0.763985   -0.703590
H     -5.823882   -0.845182   -1.420401
H     -4.583612    0.606209   -2.845055
H     -3.482382   -0.602613   -2.184556
H     -3.772404    2.165564   -0.909373
H     -2.697208    1.877755   -2.296005
H     -0.956556    2.555433   -0.864999
H     -1.952669    2.568215    0.607311
H      0.428588    0.750027   -0.007051
H      0.445426    2.105421    1.109964
H     -1.198970   -0.473407    1.405028
H      0.318193   -0.114009    2.221455
H     -1.621316    0.244590    3.710379
H     -2.272434    1.474301    2.606274
H     -1.473226    1.972064    5.404713
H     -2.087769    3.145695    4.219041
H     -0.802093    4.208264    6.069813
H      0.639419    3.288444    5.621763
H      0.339181    5.772387    4.796540
H     -0.766454    5.117794    3.619399
H      1.220847    3.542715    2.883425
H      2.198098    4.456529    4.016082
H      0.486838    4.426183    1.004537
H     -0.270003    5.933450    1.592192
H      2.335247    5.924401    0.012523
H      1.304773    7.294241    0.348485
H      1.145742    6.483268   -1.999407
H      0.590870    4.903436   -1.435313
H     -1.210736    6.468454   -2.304817
H     -0.916979    7.517699   -0.898556
H     -3.422526    5.973814   -1.599277
H     -3.150126    7.142237   -0.283994
H     -3.869757    4.188765    0.069719
H     -5.000247    5.539758    0.213473
H     -3.571371    6.444713    2.114974
H     -2.543314    5.032278    1.987901
H     -4.449524    3.536479    2.519056
H     -5.539386    4.951821    2.572122
H     -4.375861    4.246820    6.010650
H     -4.862577    3.048290    4.811261
H     -6.316947    5.725749    5.217751
H     -6.856099    4.368064    4.243638
H     -7.048817    2.949506    6.294004
H     -6.508138    4.314105    7.284851
H     -8.909519    4.197990    7.446312
H     -8.550227    5.633804    6.495897
H    -10.482938    3.047470    3.732076
H    -11.031477    5.324122    2.132868
H     -9.404138    4.793013    1.732247
H    -13.007212    4.080382    1.429822
H    -12.925210    2.430723    0.815710
H    -12.535466    2.755472    2.503039
H    -11.036949    5.046067   -0.304238
H    -11.694855    3.570589   -0.956173
H     -8.730279    3.965762   -0.329491
H    -10.177680    4.635081   -2.791353
H     -6.303810    5.820248   -3.995135
H     -7.275023    6.321383   -5.364215
H     -7.118290    4.350438   -6.503719
H     -7.173068    3.342998   -5.078519
H     -5.002757    3.236803   -6.342240
H     -4.701020    4.923371   -5.984362
H     -4.570472    4.425094   -3.538654
H     -5.162522    2.793726   -3.823863
H     -1.123110    2.329136   -4.439261
H      0.071834    5.062205   -4.216552
H      0.759926    3.566635   -3.625280
H      0.648964    4.527246   -7.874546
H     -0.168542    5.531171   -6.669995
H     -0.797817    3.921764   -7.075206
H      1.571529    2.407406   -7.263806
H      0.405490    1.798704   -6.114499
H      2.709111    0.823544   -6.008046
H      1.208040    1.518474   -3.707364
H      2.325973   -0.762683   -0.447688
H      3.664487   -1.103423   -1.534105
H      2.131031   -2.456347   -2.995285
H      2.202816   -3.062076   -1.343189
H     -0.037889   -3.205723   -1.841640
H      0.023775   -1.716586   -0.899250
H     -1.401417   -1.867344   -3.129445
H      0.135203   -1.644701   -3.970199
H     -0.975331    0.048785   -1.970716
H      4.530730    2.150031   -4.883482
H      4.097673    2.621643   -6.511391
H      3.238042    5.229877   -3.190079
H      4.404174    3.912728   -3.028550
H      2.694644    3.558432   -3.047372
H      4.704686    5.938075   -5.157574
H      5.698254    4.481113   -4.976945
H      4.947171    4.851355   -6.532512
H      2.621209    4.901720   -6.783337
H      2.110385    5.704851   -5.320539
H     -8.310854    1.913324   -1.345877
H     -9.837053    1.840232   -2.178578
H    -12.008147    1.356643   -0.914998
H    -11.784014    0.066757    0.277338
H    -11.138664   -0.101507   -1.359107
H     -9.397962   -0.596328    0.969938
H     -8.820297   -0.524887   -0.702994
H     -8.029596    0.440796    0.550454
H     -9.132434    2.300923    1.575768
H    -10.575551    1.414257    1.999475
H      5.766496   -9.386710    1.572303
H      5.576075   -8.422335    0.138468
H      4.306753  -11.814390    1.441396
H      5.179890  -12.698435    0.182141
H      6.067571  -11.762442    1.393315
H      6.325550  -11.497060   -1.691047
H      6.285966   -9.733825   -1.824212
H      3.984334  -11.188182   -1.929553
H      3.077259  -11.280603   -0.446040
