198

C      1.046092    1.773202    6.636765
C      0.038239    2.907744    6.920523
C      0.859216    4.156289    7.308685
C     -0.763595    3.181402    5.636987
C     -1.903133    4.204289    5.792049
N     -2.963220    3.964102    4.822451
C     -2.791880    3.984519    3.473153
O     -1.735740    4.181878    2.889924
O     -3.987277    3.733236    2.888634
C     -3.950406    3.536979    1.467876
C     -5.056051    2.547339    1.109359
C     -5.029546    2.083423   -0.346287
C     -3.740816    1.347857   -0.704478
O     -3.922818    0.628781   -1.926921
C     -2.685454    0.367624   -2.603947
C     -1.833714   -0.667183   -1.872658
C     -0.446451   -0.820709   -2.489016
C      0.380970   -1.845963   -1.718656
O      1.716327   -1.828068   -2.216378
C      2.544503   -2.778037   -1.543286
C      4.001458   -2.516588   -1.909114
C      4.507437   -1.206614   -1.305280
C      5.902528   -0.848304   -1.803551
O      6.354863    0.280779   -1.055813
C      7.415363    0.996182   -1.684708
C      8.726932    0.217437   -1.764961
C      9.172311   -0.333049   -0.406659
C     10.581333   -0.925274   -0.447106
O     10.766090   -1.768578   -1.579394
C     10.751814   -3.167988   -1.310330
C      9.365777   -3.680821   -0.926872
C      9.256450   -5.209463   -0.959095
C      9.258984   -5.790804   -2.372116
O      8.154955   -5.249541   -3.092103
C      8.213399   -5.554329   -4.483038
C      6.982342   -4.967848   -5.166779
C      6.940827   -3.441058   -5.075350
C      5.655401   -2.882991   -5.673600
O      5.662728   -1.463854   -5.518903
C      4.362987   -0.907697   -5.711591
C      4.448075    0.608685   -5.567137
C      3.086964    1.266336   -5.350509
C      2.086155    1.000710   -6.468468
O      0.844373    1.598970   -6.099723
C     -0.200225    1.255231   -7.007300
C     -1.510480    1.763060   -6.421783
C     -2.709538    1.281307   -7.227907
C     -4.021672    1.670673   -6.560566
O     -5.085372    1.064001   -7.293103
C     -6.332225    1.113178   -6.600634
C     -6.450356   -0.061401   -5.630780
C     -7.800436   -0.063125   -4.915944
C     -7.927165   -1.210980   -3.917376
O     -6.920847   -1.061754   -2.907147
C     -7.190708   -1.678056   -1.732917
O     -8.179808   -2.356857   -1.501983
N     -6.195235   -1.403371   -0.843897
C     -6.270721   -1.774037    0.552257
C     -5.378389   -2.984555    0.970500
C     -5.672877   -4.173812    0.032943
C     -3.879968   -2.610601    0.872144
C     -3.366784   -1.942777    2.148486
N     -2.003508   -1.474049    1.966399
C     -1.599841   -0.205493    2.244514
O     -2.324323    0.700814    2.625364
O     -0.269455   -0.103858    2.008213
C      0.291431    1.192031    2.266600
C      0.112399    2.117918    1.069309
O      0.460241    3.454119    1.403043
C     -3.439967   -2.879230    3.365090
C     -4.631147   -3.870175    3.346985
C     -5.184565   -4.012837    4.782097
C     -4.150662   -5.268816    2.914261
C     -5.769393   -3.349992    2.436721
C     -2.485851    4.250888    7.215000
C     -2.375133    2.922602    8.000547
C     -2.907233    3.176627    9.431303
C     -3.263640    1.830415    7.329716
N     -3.272563    0.598269    8.137969
C     -3.759182   -0.320519    7.594030
O     -4.248381   -1.234141    7.039893
C     -0.885710    2.478298    8.094215
H      0.532554    0.853154    6.334800
H      1.735129    2.046793    5.829516
H      1.645143    1.544596    7.525536
H      1.516368    4.464896    6.487378
H      0.228230    5.011992    7.560778
H      1.495576    3.953916    8.178062
H     -0.084817    3.527570    4.845639
H     -1.165762    2.231226    5.263309
H     -1.509823    5.201463    5.555017
H     -3.917273    3.809231    5.117035
H     -2.977118    3.151299    1.155915
H     -4.125762    4.500269    0.977666
H     -4.992928    1.674504    1.772082
H     -6.028317    3.006969    1.326784
H     -5.159137    2.937999   -1.021444
H     -5.891756    1.431575   -0.526787
H     -3.495077    0.627474    0.079777
H     -2.920830    2.066660   -0.805046
H     -2.941314   -0.013545   -3.598319
H     -2.142831    1.309028   -2.749788
H     -1.721957   -0.388310   -0.820524
H     -2.358530   -1.629740   -1.878532
H     -0.520849   -1.122901   -3.540705
H      0.075862    0.144286   -2.487011
H      0.393445   -1.593173   -0.651942
H     -0.046522   -2.847768   -1.841491
H      2.409093   -2.706131   -0.457617
H      2.255308   -3.783437   -1.868515
H      4.098990   -2.476123   -2.997398
H      4.622345   -3.345128   -1.549444
H      4.513868   -1.280520   -0.210409
H      3.827304   -0.379415   -1.543986
H      5.867254   -0.614158   -2.871957
H      6.591291   -1.683425   -1.642913
H      7.099361    1.322301   -2.682635
H      7.575001    1.904323   -1.092820
H      9.501350    0.877353   -2.173604
H      8.610937   -0.614313   -2.469655
H      9.143600    0.457395    0.352527
H      8.463139   -1.102900   -0.086062
H     10.817405   -1.442100    0.490337
H     11.301170   -0.105386   -0.549191
H     11.491027   -3.406936   -0.536751
H     11.091694   -3.647662   -2.232280
H      8.606189   -3.225738   -1.572572
H      9.135130   -3.343024    0.090468
H     10.066618   -5.657071   -0.372529
H      8.311208   -5.484059   -0.474379
H      9.148734   -6.879858   -2.322247
H     10.199106   -5.564374   -2.885436
H      9.126863   -5.133084   -4.918145
H      8.224795   -6.641931   -4.616261
H      6.970237   -5.274611   -6.218869
H      6.082626   -5.376545   -4.690464
H      7.016250   -3.113252   -4.031175
H      7.806404   -3.005467   -5.589454
H      4.789910   -3.317083   -5.159797
H      5.587626   -3.122833   -6.740483
H      3.999291   -1.177278   -6.709452
H      3.680104   -1.319044   -4.960811
H      5.100443    0.862072   -4.722498
H      4.936180    1.029485   -6.454729
H      2.662249    0.924542   -4.397434
H      3.220662    2.349456   -5.237293
H      1.938317   -0.075943   -6.601934
H      2.435241    1.434842   -7.411774
H     -0.005423    1.714373   -7.982738
H     -0.242256    0.166123   -7.125528
H     -1.493929    2.858803   -6.374297
H     -1.592726    1.419592   -5.383149
H     -2.675680    0.189844   -7.337927
H     -2.676920    1.687454   -8.246269
H     -4.025193    1.328650   -5.520897
H     -4.152359    2.758471   -6.572402
H     -7.120365    1.040083   -7.357803
H     -6.453144    2.076858   -6.091655
H     -5.636744   -0.024223   -4.898410
H     -6.312405   -1.000390   -6.181184
H     -8.609410   -0.134802   -5.651959
H     -7.918966    0.888099   -4.382603
H     -8.931443   -1.180443   -3.478543
H     -7.783016   -2.174807   -4.417660
H     -5.442044   -0.821025   -1.200593
H     -7.318346   -1.987343    0.799358
H     -5.989869   -0.879895    1.120442
H     -5.359170   -3.961367   -0.995045
H     -5.147324   -5.080672    0.342704
H     -6.743210   -4.407961    0.017095
H     -3.268667   -3.497351    0.662198
H     -3.714678   -1.947507    0.016678
H     -3.996853   -1.069307    2.356628
H     -1.276416   -2.117908    1.687141
H     -0.127884    1.627214    3.179630
H      1.359822    1.056409    2.468997
H     -0.913469    2.102631    0.691957
H      0.751886    1.787078    0.244064
H     -0.259707    3.799959    1.978901
H     -3.480559   -2.244660    4.261207
H     -2.500858   -3.441074    3.465067
H     -4.406851   -4.352749    5.475539
H     -6.006557   -4.736788    4.818994
H     -5.568354   -3.057276    5.156728
H     -4.993904   -5.960215    2.806807
H     -3.469188   -5.696948    3.659129
H     -3.605610   -5.250555    1.967922
H     -6.600896   -4.068048    2.430345
H     -6.177201   -2.450337    2.921381
H     -3.530546    4.589817    7.190554
H     -1.952403    5.029061    7.776410
H     -2.371110    4.003581    9.911316
H     -3.971347    3.438095    9.416419
H     -2.784857    2.296266   10.071561
H     -2.912344    1.606279    6.317281
H     -4.291884    2.208319    7.238186
H     -0.849099    1.387777    8.211571
H     -0.450259    2.861794    9.027604
