476

O     12.553330   -3.559220    0.633182
C     11.989707   -2.526643    0.599735
N     11.422042   -1.496632    0.581637
C     10.869099   -1.227146   -0.690052
C     11.604814   -0.403570   -1.551462
C     11.101303   -0.064542   -2.794683
C      9.864069   -0.567091   -3.198857
C      9.086648   -1.434919   -2.393488
C      7.824023   -1.988095   -2.773734
N      7.226226   -1.929994   -4.052460
C      7.792656   -1.857468   -5.289569
O      8.971656   -1.928287   -5.594349
O      6.783283   -1.733925   -6.193280
C      7.198326   -1.687306   -7.565411
C      5.970471   -1.405940   -8.431047
C      5.356263   -0.024587   -8.187546
C      6.174626    1.112331   -8.797131
O      5.546540    2.361211   -8.504348
C      6.087051    2.987968   -7.342097
C      5.097222    4.039407   -6.852353
C      5.633111    4.921837   -5.723774
C      6.217117    4.202187   -4.507477
O      5.225221    3.558907   -3.712610
C      5.037637    2.179474   -4.010383
C      4.332441    1.528217   -2.826717
C      4.091171    0.048213   -3.074222
C      3.575192   -0.667730   -1.835294
O      3.479983   -2.053268   -2.158715
C      3.019315   -2.833785   -1.051630
C      3.089909   -4.298443   -1.466775
C      2.598920   -5.291703   -0.413895
C      3.325031   -5.189810    0.926371
O      2.759140   -4.178089    1.765887
C      1.606520   -4.650304    2.473805
C      1.273622   -3.682566    3.605734
C      0.157517   -4.247217    4.484978
C     -0.084182   -3.422755    5.743490
O     -0.808478   -2.234406    5.427052
C     -1.103639   -1.488300    6.607644
C     -2.005940   -0.304728    6.273880
C     -1.261527    0.827028    5.564037
C     -2.181786    2.021346    5.335655
O     -1.430556    3.104458    4.785502
C     -2.210734    4.297518    4.734291
C     -1.384525    5.424990    4.124835
C     -1.301532    5.322808    2.601015
C     -0.492875    6.476226    2.017622
O     -0.672218    6.498580    0.602186
C     -0.043027    7.635636    0.011772
C     -0.213284    7.564703   -1.501130
C      0.303882    8.803169   -2.244435
C      1.748648    9.176273   -1.921427
O      2.568051    8.026249   -2.095558
C      3.820736    8.138552   -1.430136
C      4.506010    6.773111   -1.419628
C      3.565317    5.666489   -0.926825
C      4.314128    4.389352   -0.563992
O      4.863339    4.480051    0.762634
C      4.000282    4.164811    1.772010
O      2.833111    3.858020    1.594406
N      4.676498    4.282977    2.950088
C      4.184367    4.206476    4.275928
C      2.822237    4.005024    4.515531
C      2.331306    3.971397    5.810522
C      3.192741    4.169038    6.884592
C      4.582205    4.388488    6.712231
C      5.479992    4.603920    7.810580
N      4.968167    4.716224    9.126780
C      5.647970    4.843774   10.304807
O      6.849658    4.755933   10.495976
O      4.734466    5.096632   11.284525
C      5.280798    5.511929   12.552337
C      5.356414    7.040610   12.598377
O      6.333854    7.474746   11.652878
C      6.246823    8.767665   11.230088
C      6.786873    9.016182    9.967361
C      6.774020   10.305624    9.423654
C      6.232491   11.362487   10.149491
O      6.157051   12.669518    9.766736
C      6.634739   13.069136    8.479332
C      5.461763   13.268630    7.521482
O      4.840517   12.028679    7.137404
C      5.464137   11.338340    6.145681
O      6.520776   11.685736    5.643309
N      4.661555   10.287350    5.805936
C      4.839121    9.339296    4.773242
C      3.645038    8.968628    4.140192
C      3.663449    8.142842    3.031712
C      4.879360    7.656162    2.559583
C      6.109898    7.908458    3.211335
C      7.350906    7.317788    2.792088
N      7.381638    6.450244    1.669288
C      8.426259    5.724727    1.165062
O      9.575759    5.670829    1.568464
O      7.954653    5.007932    0.111699
C      8.839219    4.033219   -0.467691
C      8.087327    2.708623   -0.577766
C      7.740590    2.133322    0.797586
C      6.767661    0.966833    0.693333
O      6.445252    0.537609    2.013860
C      5.279817   -0.287658    2.069301
C      4.028793    0.584784    2.125589
C      2.747379   -0.231127    2.231641
C      1.528813    0.685126    2.298676
O      0.328783   -0.068682    2.446834
C     -0.192408   -0.564652    1.219920
C     -1.563459   -1.167116    1.504651
C     -2.200394   -1.704573    0.232740
C     -3.633493   -2.163963    0.453365
O     -4.140198   -2.586420   -0.812360
C     -5.564038   -2.585602   -0.848237
C     -6.039327   -3.000184   -2.240074
C     -5.316081   -2.291911   -3.395043
C     -5.436792   -0.772436   -3.359129
O     -6.784385   -0.411158   -3.654561
C     -7.046493    0.963247   -3.388631
C     -8.178714    1.460619   -4.285330
C     -9.413777    0.561343   -4.261121
C    -10.524118    1.110852   -5.157798
O    -11.523287    0.118606   -5.386775
C    -12.489526    0.033019   -4.346879
C    -13.255815   -1.282505   -4.475622
C    -12.420257   -2.500311   -4.068184
C    -11.419989   -2.966149   -5.123305
O    -10.634890   -4.013848   -4.548331
C     -9.702544   -4.560131   -5.484596
C     -8.607307   -5.246671   -4.681752
C     -7.575266   -5.959835   -5.550102
C     -6.350243   -6.305162   -4.713805
O     -5.466948   -7.167123   -5.435531
C     -4.201915   -7.218144   -4.770086
C     -3.404352   -8.439244   -5.209478
C     -2.083583   -8.512836   -4.442095
C     -1.287451   -9.770651   -4.770533
O      0.027662   -9.718366   -4.217153
C      0.092184   -9.937566   -2.804100
C      1.573942  -10.019234   -2.447203
C      1.884283  -10.386359   -0.995007
C      1.469867   -9.325343    0.019257
O      0.110229   -9.544777    0.408747
C     -0.354676   -8.667808    1.342287
O      0.304376   -7.739089    1.788903
N     -1.629720   -9.026999    1.661495
C     -2.581304   -8.352642    2.461177
C     -2.351820   -7.048831    2.907713
C     -3.379940   -6.315794    3.486002
C     -4.652407   -6.871547    3.587001
C     -4.927943   -8.193103    3.171994
C     -6.222433   -8.779340    3.241866
N     -7.429318   -8.049099    3.327972
C     -7.706920   -6.916914    2.606077
O     -6.938505   -6.264238    1.916231
O     -9.049293   -6.685230    2.669895
C     -9.532924   -5.714877    1.720478
C     -9.745316   -6.401118    0.369546
C     -9.805312   -5.462473   -0.836348
C    -10.944205   -4.447071   -0.800970
O    -10.810873   -3.470176    0.228534
C     -9.773334   -2.519452   -0.019064
C     -9.958300   -1.359761    0.957728
C     -8.735856   -0.447645    1.027621
C     -7.653729   -1.008485    1.950952
O     -6.429031   -0.299374    1.796739
C     -6.384829    0.935837    2.501281
C     -5.033192    1.604827    2.253985
C     -4.784582    1.868163    0.768060
C     -3.502438    2.668635    0.538643
O     -3.077390    2.679566   -0.823539
C     -4.009341    3.158315   -1.786892
C     -4.313051    4.652953   -1.667114
C     -5.490789    5.082827   -2.552536
C     -5.217433    4.980828   -4.049522
O     -4.265529    5.974882   -4.416045
C     -3.804979    5.796825   -5.755623
C     -2.920743    6.975695   -6.153551
C     -1.691359    7.193490   -5.264450
C     -0.532605    6.237280   -5.539398
O     -0.911055    4.902894   -5.228387
C      0.193169    3.997710   -5.177420
C      0.867948    4.015506   -3.805126
C     -0.056649    3.583243   -2.659821
C      0.007882    2.086911   -2.369363
O     -0.361625    1.323930   -3.517456
C     -0.151457   -0.069889   -3.298716
C     -0.769352   -0.856958   -4.448874
C     -0.441276   -2.349461   -4.406128
C     -0.842782   -3.020452   -3.098058
O     -0.588767   -4.421141   -3.198358
C     -0.890293   -5.116034   -1.988033
C     -2.366815   -5.485758   -1.913961
C     -2.727790   -6.045707   -0.541766
C     -4.185237   -6.482650   -0.459855
O     -4.355663   -7.731331   -1.147336
C     -5.700050   -8.200210   -0.996859
C     -5.917791   -9.453980   -1.840079
C     -5.272950  -10.729603   -1.283190
C     -3.767607  -10.844462   -1.497435
O     -3.038513  -10.003684   -0.618921
C     -6.381229  -10.164284    3.118511
C     -5.299928  -10.957314    2.767370
C     -4.064235  -10.364393    2.516442
C     -3.842262   -8.977616    2.703454
C      8.517516    7.572398    3.518995
C      8.483280    8.358631    4.659776
C      7.282785    8.926681    5.075700
C      6.078675    8.762325    4.359130
C      5.703147   11.108788   11.419130
C      5.708119    9.820261   11.962463
C      6.848896    4.754700    7.573003
C      7.350629    4.709012    6.283403
C      6.487329    4.524166    5.209443
C      5.088928    4.373952    5.376831
C      7.040200   -2.659321   -1.821179
C      7.509297   -2.887144   -0.536973
C      8.774703   -2.435043   -0.185694
C      9.584109   -1.707492   -1.084804
H     12.570398   -0.013173   -1.238956
H     11.664874    0.588959   -3.456345
H      9.500736   -0.235439   -4.166216
H      6.233618   -2.126505   -4.107822
H      7.962331   -0.915918   -7.706459
H      7.617497   -2.662405   -7.839133
H      6.229309   -1.521035   -9.490602
H      5.206502   -2.157228   -8.199042
H      4.351767    0.000415   -8.631301
H      5.201283    0.146722   -7.115079
H      6.185578    1.004158   -9.888112
H      7.215224    1.111173   -8.456075
H      7.042729    3.449491   -7.609200
H      6.263375    2.237585   -6.565263
H      4.164836    3.552730   -6.544323
H      4.810568    4.681581   -7.694770
H      6.412282    5.570603   -6.141588
H      4.818233    5.577187   -5.391805
H      7.032900    3.521187   -4.774497
H      6.665773    4.967471   -3.861957
H      4.425046    2.075585   -4.909701
H      6.003930    1.686297   -4.172343
H      4.945678    1.667320   -1.930613
H      3.385995    2.040664   -2.628936
H      3.387888   -0.090668   -3.904500
H      5.021760   -0.426240   -3.396474
H      2.594508   -0.282009   -1.538274
H      4.273846   -0.535861   -1.002923
H      3.669582   -2.644535   -0.190280
H      1.990788   -2.547387   -0.806428
H      4.123513   -4.540813   -1.741652
H      2.510528   -4.441083   -2.387220
H      2.759149   -6.296803   -0.821427
H      1.521902   -5.164699   -0.278090
H      3.309671   -6.158075    1.442414
H      4.379011   -4.936760    0.770806
H      0.758633   -4.730566    1.786063
H      1.815623   -5.638630    2.899232
H      2.176311   -3.506179    4.202731
H      0.985335   -2.710955    3.193406
H     -0.765059   -4.306413    3.896663
H      0.424996   -5.266648    4.789581
H      0.864854   -3.165911    6.228986
H     -0.679456   -4.022197    6.442196
H     -0.173225   -1.149013    7.074411
H     -1.632447   -2.137942    7.314872
H     -2.837877   -0.640720    5.642901
H     -2.430691    0.080346    7.208678
H     -0.395818    1.145227    6.159307
H     -0.862578    0.481407    4.606011
H     -2.625961    2.333915    6.289026
H     -2.987973    1.754429    4.643712
H     -3.124979    4.125853    4.153701
H     -2.490480    4.575923    5.756261
H     -1.853548    6.381696    4.388155
H     -0.372319    5.420442    4.546553
H     -0.854626    4.369248    2.294641
H     -2.311181    5.337798    2.173061
H      0.570595    6.346914    2.250253
H     -0.835108    7.429646    2.439106
H     -0.511079    8.546763    0.399528
H      1.017481    7.635748    0.281948
H      0.289617    6.664772   -1.875139
H     -1.273807    7.419794   -1.742279
H      0.224987    8.603541   -3.319549
H     -0.343328    9.661634   -2.031149
H      2.096155    9.967664   -2.594494
H      1.810465    9.549579   -0.892647
H      4.445474    8.878743   -1.942146
H      3.668276    8.463750   -0.394631
H      5.406805    6.830655   -0.801297
H      4.824997    6.521928   -2.438052
H      2.849377    5.436291   -1.724348
H      2.994009    6.027165   -0.063470
H      5.151431    4.219779   -1.244188
H      3.657166    3.516422   -0.640865
H      5.653717    4.481447    2.816805
H      2.105823    3.861744    3.714757
H      1.271948    3.788493    5.978775
H      2.743571    4.120558    7.871077
H      3.971730    4.754903    9.256991
H      6.258911    5.054093   12.740224
H      4.595205    5.154782   13.327408
H      5.657337    7.365596   13.600677
H      4.371195    7.451348   12.346125
H      7.220642    8.195951    9.398063
H      7.204407   10.431653    8.438605
H      7.409885   12.412986    8.077471
H      7.117161   14.041628    8.629647
H      5.775568   13.821072    6.627938
H      4.680850   13.861854    8.009269
H      3.746130   10.355269    6.228915
H      2.689756    9.366933    4.472828
H      2.738068    7.883368    2.523866
H      4.823275    7.032503    1.676037
H      6.533446    6.292256    1.146254
H      9.764299    3.897623    0.103676
H      9.103899    4.389200   -1.468621
H      8.694170    1.986163   -1.134940
H      7.162655    2.871261   -1.143773
H      7.291794    2.899809    1.439705
H      8.652692    1.811857    1.314582
H      5.867676    1.292068    0.164897
H      7.215013    0.133722    0.144762
H      5.353135   -0.882784    2.985167
H      5.259868   -0.984877    1.223774
H      3.975514    1.222440    1.236942
H      4.111771    1.266234    2.980909
H      2.774434   -0.867938    3.122939
H      2.662455   -0.909167    1.376403
H      1.466378    1.344004    1.424238
H      1.607386    1.325211    3.183759
H      0.478986   -1.326497    0.810867
H     -0.288347    0.253237    0.496661
H     -2.201706   -0.402358    1.962270
H     -1.471287   -1.965457    2.251901
H     -2.198900   -0.930894   -0.543910
H     -1.605001   -2.533389   -0.165128
H     -3.679989   -3.002466    1.157164
H     -4.225803   -1.333217    0.848378
H     -5.939978   -1.583381   -0.617648
H     -5.953785   -3.282294   -0.098033
H     -7.122645   -2.844732   -2.314068
H     -5.866471   -4.075793   -2.356882
H     -4.257040   -2.569182   -3.390686
H     -5.739425   -2.666416   -4.335324
H     -4.790461   -0.340479   -4.132309
H     -5.128291   -0.365131   -2.389404
H     -7.318960    1.065502   -2.332444
H     -6.156075    1.572850   -3.581555
H     -8.446354    2.483656   -3.997082
H     -7.806844    1.501831   -5.316692
H     -9.155181   -0.448469   -4.597925
H     -9.778212    0.452856   -3.233319
H    -10.969269    2.023645   -4.742357
H    -10.109974    1.365806   -6.139510
H    -13.181720    0.874961   -4.455136
H    -12.022132    0.098595   -3.357827
H    -13.624414   -1.411958   -5.500654
H    -14.128082   -1.232429   -3.812266
H    -11.899405   -2.292557   -3.125520
H    -13.096909   -3.337520   -3.850869
H    -10.747643   -2.159727   -5.421611
H    -11.946935   -3.340243   -6.008182
H    -10.226253   -5.272239   -6.131252
H     -9.263896   -3.767654   -6.102665
H     -8.117582   -4.490588   -4.056603
H     -9.055683   -5.963006   -3.982785
H     -7.267215   -5.327906   -6.391521
H     -8.007769   -6.866851   -5.987425
H     -5.826556   -5.379944   -4.445463
H     -6.653103   -6.817187   -3.794334
H     -4.362060   -7.271770   -3.689532
H     -3.649992   -6.298923   -4.997630
H     -3.998618   -9.345835   -5.036394
H     -3.222062   -8.395107   -6.289658
H     -2.284252   -8.487176   -3.365240
H     -1.473472   -7.627211   -4.658165
H     -1.160807   -9.846828   -5.857150
H     -1.804135  -10.678839   -4.437478
H     -0.383259   -9.105065   -2.278563
H     -0.415866  -10.873029   -2.550470
H      2.059114   -9.066818   -2.700565
H      2.049304  -10.762960   -3.101060
H      2.970491  -10.516509   -0.925609
H      1.421669  -11.350935   -0.753673
H      2.101255   -9.424676    0.910368
H      1.587713   -8.319150   -0.394337
H     -1.954504   -9.827434    1.125714
H     -1.396344   -6.555643    2.769162
H     -3.205045   -5.295386    3.817555
H     -5.439926   -6.256714    4.018128
H     -8.262559   -8.527077    3.642134
H    -10.485719   -5.337884    2.107481
H     -8.843632   -4.864198    1.658078
H     -8.939701   -7.124077    0.186979
H    -10.663032   -7.002853    0.420880
H     -8.839192   -4.956910   -0.942147
H     -9.932940   -6.082163   -1.732643
H    -11.893238   -4.967168   -0.629833
H    -11.028976   -3.945157   -1.769417
H     -8.803396   -3.001043    0.130231
H     -9.827979   -2.145866   -1.049093
H    -10.830914   -0.778959    0.631753
H    -10.210617   -1.736219    1.957812
H     -9.051003    0.531782    1.406444
H     -8.325488   -0.267242    0.026494
H     -7.974366   -0.998378    2.999800
H     -7.438993   -2.049960    1.691594
H     -6.502737    0.745915    3.573837
H     -7.191194    1.596551    2.169266
H     -4.235879    0.952575    2.629365
H     -4.989298    2.543245    2.818801
H     -5.637740    2.416301    0.355135
H     -4.727987    0.924707    0.214001
H     -3.610083    3.694142    0.906768
H     -2.681856    2.216451    1.106006
H     -3.562536    2.960501   -2.766267
H     -4.926116    2.564299   -1.740569
H     -4.561324    4.906466   -0.631928
H     -3.411220    5.231928   -1.906793
H     -5.734095    6.123924   -2.305140
H     -6.367757    4.476382   -2.300662
H     -6.146496    5.172383   -4.598632
H     -4.859467    3.981991   -4.320801
H     -3.273173    4.845048   -5.842919
H     -4.669747    5.763105   -6.429907
H     -3.530271    7.886361   -6.087675
H     -2.613590    6.869912   -7.200116
H     -1.329137    8.214796   -5.434084
H     -1.980514    7.127526   -4.209280
H      0.323898    6.546496   -4.931455
H     -0.239615    6.287850   -6.594582
H     -0.194825    3.000393   -5.398636
H      0.916388    4.239471   -5.964800
H      1.765252    3.389116   -3.830975
H      1.203624    5.036438   -3.591512
H      0.242718    4.111703   -1.746066
H     -1.088709    3.878375   -2.873646
H      1.023578    1.817835   -2.060980
H     -0.671834    1.846131   -1.545229
H      0.924492   -0.259185   -3.251258
H     -0.610008   -0.360882   -2.347822
H     -1.857816   -0.711699   -4.437758
H     -0.423171   -0.440172   -5.403718
H     -0.944069   -2.852442   -5.241443
H      0.632211   -2.500383   -4.572677
H     -1.902567   -2.843134   -2.898012
H     -0.249541   -2.615759   -2.272054
H     -0.579648   -4.524588   -1.120080
H     -0.289772   -6.031717   -1.985215
H     -2.995613   -4.620230   -2.141139
H     -2.582453   -6.217277   -2.694391
H     -2.545132   -5.272225    0.213647
H     -2.072981   -6.894497   -0.322101
H     -4.464142   -6.615490    0.587818
H     -4.843822   -5.726481   -0.898009
H     -6.389674   -7.420787   -1.340485
H     -5.905303   -8.408508    0.057277
H     -5.561516   -9.288560   -2.862889
H     -6.999174   -9.631639   -1.899501
H     -5.743356  -11.580138   -1.792373
H     -5.510251  -10.820455   -0.219315
H     -3.449897  -11.870857   -1.293549
H     -3.490473  -10.611556   -2.528871
H     -3.323468   -9.085537   -0.825303
H     -7.358465  -10.627751    3.218328
H     -5.421292  -12.030018    2.640717
H     -3.250979  -11.019348    2.209541
H      9.477951    7.153976    3.237982
H      9.391712    8.523398    5.233898
H      7.309127    9.487852    6.004248
H      5.288713   11.931524   11.997194
H      5.307564    9.675857   12.959648
H      7.558785    4.929281    8.373673
H      8.417135    4.825534    6.109829
H      6.956899    4.489853    4.231799
H      6.057694   -3.047006   -2.083977
H      6.898960   -3.421705    0.186709
H      9.112267   -2.627427    0.832742
