449

O     -2.627518  -10.495458    8.384167
C     -1.824459  -10.123678    7.609201
N     -1.021156   -9.742876    6.841634
C     -0.714819  -10.718815    5.878995
C     -1.463404  -10.824286    4.699720
C     -1.135768  -11.777283    3.731285
C     -0.041496  -12.636395    3.917657
C      0.327472  -13.653765    2.861394
C      1.207078  -13.094070    1.769235
C      2.600430  -13.076709    1.907317
C      3.406266  -12.516349    0.910292
C      2.836263  -11.948250   -0.234145
N      3.706560  -11.358136   -1.166658
C      3.385712  -10.603099   -2.259833
O      2.275386  -10.262621   -2.633307
O      4.544636  -10.239471   -2.873815
C      4.415373   -9.361056   -4.003984
C      4.751747   -7.939047   -3.565355
C      4.560550   -6.935564   -4.702974
C      5.147672   -5.563334   -4.372501
O      4.653527   -5.052858   -3.138992
C      3.417880   -4.346697   -3.238300
C      3.619233   -2.904148   -3.710164
C      4.651007   -2.149268   -2.862396
C      4.815057   -0.698174   -3.314335
O      3.594637    0.028797   -3.182450
C      3.419232    0.592185   -1.883769
C      1.973786    1.051362   -1.733155
C      0.949434   -0.085199   -1.808627
C      1.096180   -1.104845   -0.681739
O     -0.032269   -1.976756   -0.711416
C     -0.003613   -2.907135    0.373053
C     -1.291996   -3.718961    0.341530
C     -1.310061   -4.803686    1.409031
C     -2.597404   -5.617640    1.360458
O     -2.529581   -6.653303    2.346875
C     -3.353759   -7.778755    2.033240
C     -4.839129   -7.458869    2.156842
C     -5.717183   -8.627369    1.703836
C     -7.190013   -8.231661    1.601793
O     -7.334583   -7.242422    0.581731
C     -7.906207   -6.025457    1.057771
C     -7.646515   -4.916516    0.041488
C     -6.150404   -4.637740   -0.110905
C     -5.876211   -3.435501   -0.998743
O     -4.461622   -3.273448   -1.114483
C     -4.085854   -1.943496   -1.471752
C     -4.355758   -1.606294   -2.934703
C     -3.354758   -2.285934   -3.864554
C     -3.675982   -2.008567   -5.327883
O     -2.532230   -2.358395   -6.105804
C     -2.721431   -2.102157   -7.495870
C     -1.341675   -1.887191   -8.104310
C     -1.406831   -1.556470   -9.594455
C     -0.048875   -1.126718  -10.149860
O      0.338933    0.101547   -9.535263
C      1.523200   -0.004818   -8.746022
C      1.548506    1.174539   -7.782070
C      2.802267    1.170515   -6.908293
C      2.706147    2.184206   -5.771290
O      2.511721    3.491420   -6.309826
C      2.312491    4.457108   -5.279077
C      2.011520    5.805218   -5.924750
C      1.823393    6.885259   -4.865378
C      1.514115    8.251626   -5.471814
O      1.676115    9.306514   -4.521986
C      0.690547    9.344502   -3.491016
C      1.235073    8.781912   -2.176409
C      2.605228    9.361762   -1.813678
C      3.157102    8.797013   -0.507019
O      3.276900    7.377686   -0.614033
C      4.189336    6.804888    0.321773
C      3.728434    6.952404    1.769634
C      4.639424    6.171939    2.721078
C      4.349179    6.500131    4.182083
O      2.995389    6.169412    4.482135
C      2.544475    6.740293    5.712205
C      1.982421    8.146282    5.479795
C      0.700402    8.151344    4.634397
C     -0.570497    8.123824    5.479485
O     -0.542901    7.019673    6.377846
C     -1.732385    6.937808    7.155593
C     -1.625276    5.773645    8.136388
C     -1.337545    4.445184    7.436949
C     -1.504929    3.264355    8.383423
O     -1.375308    2.027629    7.686049
C     -0.035885    1.555514    7.556685
C      0.490011    1.695943    6.129748
C     -0.410041    1.030310    5.087291
C      0.276983    0.982373    3.725104
O     -0.459601    0.241860    2.754544
C     -1.700999    0.848325    2.386613
C     -2.028274    0.390339    0.975038
C     -3.143506    1.163957    0.285481
C     -4.515571    1.055710    0.938306
O     -5.486224    1.356989   -0.071884
C     -6.813565    1.431079    0.443909
C     -7.796335    1.282278   -0.721690
C     -7.753389   -0.137602   -1.285400
C     -8.632956   -0.346496   -2.511954
O     -8.524698   -1.725315   -2.869997
C     -9.215299   -2.047774   -4.076772
C     -9.054950   -3.547581   -4.333211
C     -7.607542   -3.921700   -4.665599
C     -7.281099   -5.371841   -4.316538
O     -5.863117   -5.530155   -4.379176
C     -5.405039   -6.645836   -3.611990
C     -3.889836   -6.539800   -3.470049
C     -3.331846   -7.544739   -2.466992
C     -1.832711   -7.353483   -2.245131
O     -1.447006   -8.140166   -1.117264
C     -0.071893   -7.948312   -0.767830
C      0.145529   -8.579742    0.602867
C      1.581121   -8.432106    1.114138
C      1.752500   -9.055218    2.506526
O      1.785396   -8.108282    3.580068
C      0.597913   -7.331004    3.706449
C      0.570639   -6.659375    5.077565
C     -0.378905   -5.461808    5.084764
C     -0.747692   -5.003958    6.490046
O     -1.278407   -3.673307    6.404661
C     -2.167453   -3.390465    7.485513
C     -2.618068   -1.930945    7.442910
C     -3.400335   -1.571475    6.177001
C     -3.948463   -0.144839    6.248190
O     -4.678698    0.135746    5.053507
C     -5.284544    1.431234    5.045511
C     -4.266141    2.534118    4.760708
C     -4.930960    3.871776    4.426263
C     -3.915541    4.924557    3.979562
O     -3.281787    4.484242    2.781205
C     -2.278833    5.396750    2.328578
C     -1.695205    4.829617    1.040386
C     -0.592699    5.701213    0.438182
C      0.026220    5.027542   -0.786972
O     -0.970651    4.898962   -1.800087
C     -1.031019    3.585960   -2.354138
C     -2.205973    3.492079   -3.324683
C     -3.547027    3.769575   -2.633568
C     -4.748678    3.535857   -3.550369
O     -4.625648    4.257878   -4.784678
C     -4.851835    5.597686   -4.713173
O     -5.265792    6.175360   -3.719324
N     -4.511710    6.136985   -5.920391
C     -4.402283    7.491409   -6.270889
C     -3.997410    7.783430   -7.576901
C     -3.766251    9.104424   -7.970632
C     -3.941205   10.156703   -7.064568
C     -3.560842   11.569356   -7.446188
C     -2.111924   11.865224   -7.129297
C     -1.102781   11.524451   -8.038572
C      0.245631   11.690161   -7.705757
C      0.608712   12.195371   -6.457556
N      1.937075   12.323460   -6.024710
C      3.079155   11.963881   -6.677519
O      3.193303   11.500543   -7.802970
O      4.133762   12.204929   -5.849876
C      5.418013   11.802762   -6.363721
C      5.613980   10.293938   -6.220585
O      5.896515    9.982641   -4.850148
C      5.852049    8.575384   -4.618156
C      6.371946    8.271518   -3.219060
O      6.310674    6.855908   -2.999211
C      7.022529    6.416398   -1.928378
O      7.658948    7.144433   -1.183143
N      6.880853    5.060212   -1.859017
C      7.513611    4.159529   -0.985909
C      7.200354    2.801724   -1.120530
C      7.841415    1.838601   -0.333487
C      8.812377    2.218293    0.601203
C      9.574980    1.180623    1.392271
C      8.769964    0.446853    2.438847
C      8.216107    1.127362    3.529659
C      7.542066    0.426514    4.535320
C      7.414923   -0.966314    4.474823
N      6.781334   -1.604014    5.553442
C      6.582110   -2.939626    5.753857
O      6.851855   -3.866243    5.006203
O      6.017035   -3.093962    6.979852
C      5.773505   -4.452333    7.390980
C      4.436347   -4.960117    6.856446
O      3.369327   -4.248601    7.495390
C      2.720918   -3.333704    6.615422
C      1.765075   -2.462670    7.420663
O      0.926493   -1.706724    6.560993
C      7.944018   -1.644024    3.376755
C      8.616986   -0.943329    2.368687
C      9.098122    3.579781    0.756054
C      8.453512    4.541913   -0.029435
C     -0.397316   12.567612   -5.559566
C     -1.745814   12.400338   -5.889200
C     -4.384731    9.862652   -5.770060
C     -4.616360    8.540622   -5.377078
C      1.450419  -11.981867   -0.382617
C      0.642976  -12.547730    0.610639
C      0.724547  -12.511435    5.085279
C      0.392126  -11.558729    6.053287
H     -2.301610  -10.153897    4.527926
H     -1.731490  -11.833949    2.821802
H     -0.588126  -14.072906    2.423487
H      0.827438  -14.511739    3.330591
H      3.069760  -13.487605    2.798672
H      4.483726  -12.509116    1.057608
H      4.701219  -11.438095   -1.008611
H      3.422893   -9.417128   -4.466198
H      5.138345   -9.698913   -4.753815
H      5.787766   -7.916285   -3.203594
H      4.129757   -7.660994   -2.707118
H      5.036539   -7.306922   -5.617771
H      3.487907   -6.842515   -4.910995
H      4.974798   -4.860727   -5.194202
H      6.233237   -5.659343   -4.260550
H      2.715375   -4.875032   -3.891683
H      2.977527   -4.335469   -2.234850
H      3.953387   -2.898492   -4.753686
H      2.652088   -2.390919   -3.682957
H      5.626742   -2.645565   -2.931095
H      4.339315   -2.184122   -1.812723
H      5.092904   -0.674035   -4.374380
H      5.619143   -0.202087   -2.756166
H      4.085879    1.455875   -1.790818
H      3.682683   -0.123615   -1.099153
H      1.744128    1.762396   -2.535717
H      1.857732    1.585514   -0.783151
H     -0.057189    0.347250   -1.776124
H      1.009152   -0.597425   -2.775828
H      1.139910   -0.593061    0.285462
H      2.005968   -1.699251   -0.811492
H      0.074559   -2.367826    1.324234
H      0.867296   -3.562779    0.260731
H     -1.421398   -4.160124   -0.654302
H     -2.142855   -3.046431    0.491433
H     -1.198328   -4.356902    2.403176
H     -0.452972   -5.470016    1.271725
H     -2.728787   -6.041734    0.360185
H     -3.450983   -4.972617    1.587564
H     -3.093545   -8.572584    2.741097
H     -3.105110   -8.150339    1.033227
H     -5.073712   -7.185001    3.193013
H     -5.062623   -6.575895    1.558355
H     -5.607564   -9.465093    2.401263
H     -5.377410   -8.968017    0.717408
H     -7.778694   -9.103237    1.296832
H     -7.574333   -7.893348    2.571627
H     -7.469999   -5.743835    2.023550
H     -8.983385   -6.173173    1.189745
H     -8.162995   -4.006402    0.365214
H     -8.057080   -5.204808   -0.932522
H     -5.707799   -4.445764    0.874325
H     -5.630253   -5.514185   -0.513895
H     -6.302929   -3.590360   -1.990569
H     -6.329245   -2.550036   -0.542146
H     -4.601936   -1.238567   -0.814079
H     -3.016229   -1.835519   -1.266990
H     -5.373746   -1.887003   -3.216836
H     -4.271726   -0.520421   -3.063663
H     -2.340367   -1.934362   -3.635266
H     -3.340554   -3.368050   -3.701354
H     -3.889745   -0.942617   -5.469005
H     -4.543110   -2.596117   -5.651714
H     -3.334300   -1.205567   -7.647471
H     -3.227691   -2.960091   -7.951143
H     -0.853629   -1.078353   -7.548920
H     -0.720505   -2.775524   -7.941307
H     -2.124445   -0.742244   -9.749721
H     -1.767411   -2.428452  -10.149733
H     -0.148276   -0.936052  -11.223984
H      0.703160   -1.914267  -10.024586
H      2.394286    0.008450   -9.409590
H      1.525852   -0.942462   -8.178513
H      1.477741    2.110076   -8.349836
H      0.648152    1.138637   -7.154162
H      3.670530    1.404514   -7.537098
H      2.964459    0.175464   -6.478407
H      3.630935    2.168783   -5.184207
H      1.867889    1.924503   -5.113528
H      3.217642    4.519834   -4.664707
H      1.472652    4.151377   -4.645178
H      1.113171    5.720395   -6.549103
H      2.828755    6.074483   -6.605349
H      1.005431    6.592546   -4.197269
H      2.721944    6.955897   -4.240992
H      2.221517    8.461733   -6.281649
H      0.506715    8.285207   -5.904322
H      0.435403   10.399688   -3.341467
H     -0.231201    8.830261   -3.788415
H      0.515317    8.982616   -1.373777
H      1.321919    7.695748   -2.256705
H      3.315140    9.129400   -2.615029
H      2.539106   10.454131   -1.739380
H      4.137553    9.248365   -0.312973
H      2.485550    9.040337    0.322826
H      4.270881    5.742025    0.069391
H      5.180477    7.249478    0.182379
H      3.724856    8.013549    2.048946
H      2.691609    6.608047    1.861225
H      4.491298    5.098712    2.549878
H      5.691079    6.399205    2.510350
H      5.005344    5.908348    4.828585
H      4.546909    7.560700    4.369257
H      3.363801    6.768997    6.442262
H      1.776294    6.075046    6.117027
H      1.806355    8.637180    6.442671
H      2.730197    8.746242    4.949443
H      0.679417    9.060658    4.021647
H      0.699682    7.299934    3.943671
H     -1.442789    8.043126    4.819898
H     -0.652549    9.054643    6.052124
H     -1.873892    7.870632    7.713070
H     -2.594095    6.792871    6.493449
H     -2.555945    5.710699    8.710308
H     -0.813243    5.972587    8.846209
H     -0.321105    4.453922    7.029240
H     -2.005648    4.310596    6.580279
H     -0.818026    3.314685    9.235020
H     -2.520382    3.278594    8.795157
H      0.642569    2.057815    8.256693
H     -0.049253    0.497472    7.835466
H      0.587984    2.755204    5.871144
H      1.495630    1.261547    6.088233
H     -0.680323    0.014476    5.392436
H     -1.351920    1.582563    5.007376
H      1.244263    0.476836    3.822392
H      0.479600    1.989647    3.344715
H     -2.471577    0.509843    3.083622
H     -1.621775    1.937542    2.426029
H     -2.263131   -0.680538    0.988048
H     -1.125589    0.487774    0.363413
H     -2.870331    2.222489    0.222130
H     -3.203919    0.818965   -0.754838
H     -4.695819    0.041511    1.310083
H     -4.604581    1.767432    1.765064
H     -6.945866    2.406395    0.924185
H     -6.987191    0.646006    1.188616
H     -8.811177    1.509417   -0.377134
H     -7.535857    1.994179   -1.513361
H     -8.049352   -0.850676   -0.505051
H     -6.725275   -0.398715   -1.555654
H     -8.287215    0.282292   -3.340003
H     -9.677777   -0.110657   -2.286071
H     -8.806814   -1.466685   -4.910350
H    -10.277813   -1.808116   -3.957630
H     -9.707602   -3.858082   -5.156669
H     -9.377157   -4.085734   -3.433077
H     -7.409397   -3.743913   -5.729141
H     -6.909393   -3.270615   -4.134050
H     -7.640100   -5.596389   -3.306586
H     -7.753798   -6.062932   -5.022438
H     -5.686645   -7.574037   -4.120528
H     -5.867915   -6.631016   -2.619592
H     -3.417676   -6.669403   -4.450639
H     -3.635120   -5.524909   -3.144829
H     -3.525912   -8.571912   -2.800754
H     -3.853379   -7.439298   -1.506802
H     -1.269572   -7.671745   -3.128666
H     -1.613505   -6.299030   -2.042410
H      0.560034   -8.425965   -1.523787
H      0.160890   -6.877284   -0.727865
H     -0.554806   -8.129587    1.311441
H     -0.133538   -9.638988    0.557460
H      1.880084   -7.377505    1.117828
H      2.241744   -8.952682    0.410790
H      0.991928   -9.813343    2.716574
H      2.721370   -9.565712    2.539971
H      0.606203   -6.571018    2.922538
H     -0.288645   -7.963684    3.597988
H      0.270357   -7.399063    5.829294
H      1.579330   -6.332993    5.360507
H     -1.307398   -5.705202    4.555620
H      0.077959   -4.633817    4.529861
H      0.129827   -4.982362    7.144045
H     -1.483131   -5.697236    6.918670
H     -1.651863   -3.578509    8.433704
H     -3.038438   -4.052654    7.420363
H     -3.239498   -1.733798    8.324152
H     -1.740607   -1.278699    7.509794
H     -4.231868   -2.271035    6.030359
H     -2.763006   -1.672354    5.290022
H     -4.616394   -0.043571    7.110714
H     -3.125152    0.562494    6.355177
H     -5.821262    1.610306    5.984726
H     -6.030004    1.410822    4.243459
H     -3.629548    2.217826    3.931683
H     -3.597595    2.659955    5.619409
H     -5.655572    3.715890    3.617419
H     -5.480530    4.239256    5.300234
H     -4.433912    5.870665    3.786662
H     -3.164749    5.085943    4.757398
H     -1.497746    5.491127    3.091429
H     -2.727516    6.379819    2.145780
H     -2.509324    4.688264    0.317952
H     -1.296810    3.829192    1.240636
H     -1.019638    6.669230    0.150768
H      0.190245    5.884573    1.183928
H      0.835502    5.645303   -1.187549
H      0.456042    4.057121   -0.507320
H     -1.150738    2.846724   -1.553549
H     -0.096543    3.381247   -2.885979
H     -2.060213    4.222911   -4.129173
H     -2.218083    2.494046   -3.776889
H     -3.657101    3.127714   -1.755347
H     -3.555008    4.804396   -2.272768
H     -5.688329    3.791014   -3.045811
H     -4.807934    2.473337   -3.810364
H     -4.251309    5.442346   -6.606674
H     -3.827278    6.989096   -8.300024
H     -3.417482    9.299807   -8.981851
H     -4.212260   12.283831   -6.925990
H     -3.750797   11.735919   -8.514765
H     -1.354861   11.098335   -9.006645
H      0.988982   11.391464   -8.438805
H      2.103962   12.656712   -5.086604
H      6.171735   12.341184   -5.779052
H      5.520181   12.120192   -7.408096
H      6.471135    9.977891   -6.824527
H      4.722151    9.746440   -6.542217
H      6.466606    8.047711   -5.357714
H      4.822164    8.216603   -4.724284
H      5.762386    8.783192   -2.467892
H      7.400243    8.640956   -3.131142
H      6.251531    4.685712   -2.555246
H      6.468851    2.472111   -1.853015
H      7.593461    0.787460   -0.465786
H     10.436174    1.644059    1.892717
H     10.012424    0.467019    0.680194
H      8.319567    2.206915    3.613609
H      7.134200    0.985818    5.373835
H      6.444849   -1.030474    6.312932
H      5.753658   -4.438858    8.486832
H      6.599308   -5.105986    7.085566
H      4.321481   -6.013912    7.128272
H      4.371732   -4.881502    5.765390
H      3.451726   -2.696345    6.103578
H      2.174600   -3.893009    5.851148
H      1.148039   -3.058885    8.100581
H      2.335034   -1.770123    8.049903
H      0.209574   -2.306162    6.260256
H      7.866047   -2.722886    3.280476
H      9.033354   -1.504380    1.533451
H      9.845789    3.908014    1.474820
H      8.730645    5.581604    0.114472
H     -0.145232   12.961510   -4.578400
H     -2.506342   12.662563   -5.157715
H     -4.523784   10.657707   -5.041355
H     -4.933089    8.362833   -4.354344
H      0.959139  -11.565497   -1.257252
H     -0.436111  -12.539706    0.473096
H      1.592656  -13.145704    5.245451
H      1.009275  -11.464576    6.943863
