29

O      4.588898    3.362893    0.345772
C      4.689011    2.269304   -0.075390
N      4.798562    1.178064   -0.496222
C      3.612464    0.441589   -0.346597
C      2.665045    0.404019   -1.376175
C      1.497563   -0.352249   -1.241937
C      1.261643   -1.097296   -0.078031
C     -0.001803   -1.916204    0.068707
C     -1.263698   -1.086517    0.156333
C     -1.498141   -0.259587    1.263877
C     -2.664191    0.506547    1.343528
C     -3.611606    0.472065    0.313839
N     -4.796308    1.219592    0.410255
C     -4.684735    2.277684   -0.087640
O     -4.582595    3.338113   -0.586032
C     -3.389534   -0.373618   -0.779764
C     -2.223726   -1.140304   -0.862944
C      2.221640   -1.079756    0.942542
C      3.388880   -0.323186    0.804746
H      2.834331    0.966370   -2.291362
H      0.772105   -0.355642   -2.052960
H     -0.059084   -2.613653   -0.777362
H      0.054224   -2.551373    0.962557
H     -0.772636   -0.206250    2.073108
H     -2.832358    1.133315    2.216078
H     -4.129630   -0.439572   -1.573807
H     -2.074784   -1.782648   -1.728353
H      2.071555   -1.658200    1.851715
H      4.128907   -0.333499    1.601520
