22

C      0.769459    2.386177   -0.540718
C     -0.464557    1.739775   -0.546099
C     -0.573127    0.343452   -0.365540
C      0.618167   -0.408180   -0.176953
C      0.513331   -1.809870   -0.041371
C     -0.717442   -2.460932   -0.085806
C     -1.880365   -1.722086   -0.256757
C     -1.830428   -0.324168   -0.375202
N     -3.038916    0.381333   -0.566739
C     -3.569921    0.619044    0.454145
O     -4.107518    0.860707    1.471670
C      1.873019    0.262959   -0.137793
C      1.930145    1.650546   -0.342826
N      3.082650   -0.444182    0.039982
C      3.435867   -0.426387    1.160518
O      3.796053   -0.413091    2.279828
H      0.822577    3.460978   -0.696308
H     -1.355104    2.344384   -0.712688
H      1.407213   -2.419274    0.085042
H     -0.765397   -3.543154    0.007589
H     -2.836895   -2.238371   -0.302336
H      2.891190    2.160341   -0.351637
