24

O     -5.552627    2.055759   -0.515717
C     -4.389221    1.910322   -0.594207
N     -3.229428    1.755206   -0.679045
C     -2.848365    0.600929   -1.503136
C     -1.324357    0.471168   -1.513225
C     -0.760430    0.081258   -0.143689
C      0.760435   -0.081246   -0.196055
C      1.324360   -0.471157    1.173483
C      2.848366   -0.600932    1.163393
N      3.229417   -1.755218    0.339308
C      4.389209   -1.910344    0.254468
O      5.552613   -2.055793    0.175977
H     -3.193718    0.743973   -2.535792
H     -3.297447   -0.325582   -1.120870
H     -0.874791    1.416413   -1.841486
H     -1.043914   -0.292818   -2.248463
H     -1.018568    0.845689    0.598653
H     -1.218330   -0.858849    0.187174
H      1.218336    0.858860   -0.526917
H      1.018573   -0.845678   -0.938396
H      1.043924    0.292835    1.908718
H      0.874785   -1.416396    1.501747
H      3.297458    0.325572    0.781121
H      3.193719   -0.743973    2.196049
