185

O     -3.092637    5.138632    0.156639
C     -2.428582    5.400450    1.385817
C     -1.204461    6.277573    1.154740
C     -0.444312    6.616620    2.438472
C      0.184933    5.411544    3.130193
O      1.076492    4.763034    2.227248
C      1.672487    3.609136    2.817375
C      2.636329    2.989975    1.813174
C      3.262136    1.712906    2.372950
C      4.220897    1.057264    1.387357
O      5.343448    1.914850    1.185622
C      6.282369    1.344851    0.276558
C      7.423243    2.327736    0.031662
C      6.981109    3.728433   -0.412692
C      5.984533    3.739644   -1.567418
O      6.502836    2.965127   -2.650294
C      5.489827    2.534614   -3.559199
C      5.002578    3.666018   -4.462816
C      3.847112    3.236475   -5.374505
C      2.545355    2.997088   -4.610694
O      2.122168    4.228591   -4.031971
C      1.434257    4.089142   -2.789102
C      0.162199    3.253448   -2.899403
C     -0.676010    3.359758   -1.625711
C     -1.791464    2.320748   -1.583264
O     -1.218271    1.022190   -1.388985
C     -1.594448    0.406479   -0.152953
C     -0.924490    1.071287    1.050193
C     -1.393754    0.507602    2.393293
C     -0.940422   -0.920073    2.677653
O      0.485600   -0.964732    2.703470
C      0.964751   -2.225698    3.174505
C      2.484399   -2.226252    3.074702
C      3.166210   -3.426162    3.738163
C      2.711278   -4.779666    3.196052
O      1.433928   -5.146137    3.723427
C      1.542660   -5.900899    4.929852
C      0.159948   -6.210148    5.499968
C     -0.620882   -4.951276    5.901191
C     -1.584909   -4.471646    4.820413
O     -2.644934   -5.419657    4.697391
C     -3.603284   -5.017718    3.717218
C     -4.644186   -6.125296    3.601221
C     -5.779143   -5.821276    2.621825
C     -5.326339   -5.420575    1.218618
O     -4.283919   -6.251904    0.722855
C     -4.725204   -7.516887    0.249947
C     -3.560370   -8.249023   -0.413092
C     -2.496035   -8.765281    0.564579
C     -1.620099   -7.698875    1.217345
O     -0.974794   -6.919961    0.211768
C     -0.028303   -6.013225    0.777048
C      0.458139   -5.068756   -0.317975
C     -0.460224   -3.867704   -0.566722
C     -1.926824   -4.223135   -0.797175
O     -2.697994   -3.062860   -1.131156
C     -2.573342   -2.695893   -2.505738
C     -3.634407   -1.648030   -2.826361
C     -3.659694   -1.260160   -4.302157
C     -2.420974   -0.492986   -4.753246
O     -2.546540   -0.250106   -6.155395
C     -1.457336    0.495228   -6.694508
C     -1.585192    1.993681   -6.426807
C     -2.926686    2.554553   -6.908828
C     -2.995807    4.072787   -6.785835
O     -2.852336    4.451735   -5.418406
C     -2.958377    5.863881   -5.252480
C     -2.745129    6.197171   -3.780870
C     -2.889420    7.696740   -3.522434
C     -2.628168    8.057686   -2.065609
O     -3.588453    7.448243   -1.208323
H     -3.253339    6.003051   -0.283454
H     -2.151897    4.434394    1.816012
H     -3.138168    5.886511    2.062798
H     -0.539079    5.800539    0.425734
H     -1.523868    7.215680    0.686097
H     -1.111051    7.131685    3.139601
H      0.353415    7.321802    2.173542
H      0.745098    5.752529    4.008616
H     -0.585497    4.709167    3.466054
H      0.887492    2.892174    3.082136
H      2.210954    3.898847    3.727199
H      2.103456    2.774671    0.878748
H      3.410751    3.722729    1.555449
H      2.468998    1.002179    2.627166
H      3.801266    1.954679    3.296943
H      3.717245    0.869785    0.431944
H      4.567421    0.101963    1.797646
H      5.783417    1.092572   -0.665590
H      6.686020    0.420291    0.705376
H      7.999052    2.442488    0.958495
H      8.105746    1.900548   -0.712537
H      7.881052    4.279888   -0.712051
H      6.547204    4.268786    0.436942
H      5.018267    3.346221   -1.231347
H      5.833070    4.770622   -1.903872
H      5.935662    1.749719   -4.180308
H      4.677421    2.064881   -2.996010
H      4.708748    4.539364   -3.871042
H      5.844628    4.002607   -5.080546
H      3.683731    4.033964   -6.109683
H      4.123609    2.331241   -5.926709
H      1.767652    2.662464   -5.305805
H      2.679808    2.219905   -3.851742
H      2.119622    3.665601   -2.045058
H      1.185036    5.102950   -2.456973
H      0.424701    2.208055   -3.097170
H     -0.424733    3.589745   -3.761493
H     -1.111565    4.362836   -1.574885
H     -0.024360    3.235695   -0.753548
H     -2.336422    2.308457   -2.533007
H     -2.513820    2.564597   -0.796565
H     -1.276142   -0.638201   -0.218950
H     -2.686651    0.408497   -0.058922
H      0.164454    0.994184    0.950417
H     -1.141724    2.145052    1.047500
H     -0.994989    1.158039    3.181798
H     -2.486868    0.562031    2.454297
H     -1.318976   -1.613823    1.920522
H     -1.333759   -1.227100    3.653979
H      0.652994   -2.359228    4.215886
H      0.539471   -3.022618    2.557329
H      2.875970   -1.307977    3.529875
H      2.772382   -2.172248    2.017003
H      4.245541   -3.328439    3.570943
H      2.998859   -3.371947    4.819598
H      3.453423   -5.554164    3.423873
H      2.621877   -4.733932    2.106382
H      2.134233   -5.348854    5.668755
H      2.055864   -6.845118    4.713188
H      0.299806   -6.832494    6.392151
H     -0.413551   -6.803160    4.778292
H      0.068328   -4.143563    6.171852
H     -1.207468   -5.191830    6.796939
H     -2.005310   -3.503366    5.114869
H     -1.077413   -4.358325    3.858480
H     -3.092696   -4.855141    2.762649
H     -4.077015   -4.081954    4.034386
H     -5.072915   -6.321701    4.592366
H     -4.145998   -7.060964    3.319350
H     -6.408564   -6.716773    2.553150
H     -6.416307   -5.026719    3.028061
H     -4.930643   -4.399346    1.246116
H     -6.173645   -5.406863    0.523122
H     -5.516199   -7.367240   -0.493955
H     -5.129776   -8.111524    1.075577
H     -3.967802   -9.115172   -0.948866
H     -3.090536   -7.599537   -1.160796
H     -1.838356   -9.436283   -0.003038
H     -2.971984   -9.371104    1.344394
H     -0.861042   -8.195413    1.833887
H     -2.207006   -7.047329    1.868322
H     -0.471944   -5.453377    1.607777
H      0.817134   -6.598474    1.155406
H      0.578933   -5.621770   -1.257425
H      1.443793   -4.677771   -0.040714
H     -0.398682   -3.178434    0.283330
H     -0.063850   -3.305115   -1.419121
H     -2.046942   -4.996750   -1.563855
H     -2.352005   -4.606651    0.133454
H     -2.721587   -3.575581   -3.142616
H     -1.572306   -2.292330   -2.679354
H     -4.617803   -2.045330   -2.544544
H     -3.485990   -0.760840   -2.200606
H     -3.788082   -2.154260   -4.925213
H     -4.544443   -0.640107   -4.495238
H     -2.351299    0.452430   -4.207714
H     -1.511964   -1.076719   -4.578669
H     -0.503765    0.110570   -6.314125
H     -1.461725    0.324057   -7.776670
H     -1.483650    2.183891   -5.354048
H     -0.759124    2.513932   -6.925609
H     -3.092688    2.274199   -7.955356
H     -3.734294    2.111905   -6.313476
H     -2.200821    4.536678   -7.381189
H     -3.964675    4.421886   -7.161161
H     -3.952643    6.193261   -5.575488
H     -2.199946    6.364410   -5.865607
H     -3.458087    5.628345   -3.171568
H     -1.748301    5.856984   -3.476213
H     -3.904045    8.008351   -3.798347
H     -2.188323    8.249981   -4.157961
H     -1.632393    7.726548   -1.755518
H     -2.684503    9.141483   -1.923351
H     -4.467601    7.740754   -1.511854
