328

O    -12.203806  -11.247851   -6.582262
C    -11.330145  -11.924708   -5.688879
C    -10.938818  -11.002383   -4.541826
C    -10.044096  -11.715054   -3.528353
C     -9.550557  -10.775636   -2.429468
O    -10.611184  -10.092007   -1.767520
C    -11.332070  -10.904236   -0.843406
C    -12.319027  -10.026425   -0.077247
C    -11.673448   -9.147984    0.998937
C    -10.599715   -8.196492    0.482461
O    -10.202584   -7.347888    1.560861
C     -9.297677   -6.314524    1.168000
C     -7.884297   -6.843571    0.907679
C     -7.528985   -6.972686   -0.576555
C     -7.329987   -5.625743   -1.265293
O     -6.961037   -5.868791   -2.623097
C     -6.705906   -4.648763   -3.319631
C     -6.282708   -4.985741   -4.743182
C     -5.995735   -3.723853   -5.546662
C     -5.470048   -4.043223   -6.940422
O     -5.100523   -2.814228   -7.562200
C     -4.637603   -3.004578   -8.898101
C     -4.037517   -1.687651   -9.373242
C     -3.622493   -1.737443  -10.844099
C     -2.924483   -0.448585  -11.272434
O     -1.650824   -0.386057  -10.634856
C     -0.991805    0.866877  -10.799829
C     -1.434263    1.880662   -9.743220
C     -1.246987    1.343978   -8.324463
C     -1.650099    2.358628   -7.263484
O     -1.616284    1.699675   -5.998952
C     -1.968062    2.567377   -4.923954
C     -2.241997    1.700040   -3.701775
C     -2.628122    2.503331   -2.459222
C     -1.471333    3.281501   -1.840285
O     -0.431896    2.368606   -1.503719
C      0.650710    3.006386   -0.825662
C      1.687486    1.932964   -0.515702
C      2.900916    2.444842    0.252843
C      2.580241    2.861169    1.683931
O      3.782965    3.335820    2.290097
C      3.551488    3.767199    3.632225
C      4.785489    4.500553    4.147642
C      6.033012    3.626875    4.324418
C      5.993772    2.767618    5.585135
O      5.120499    1.659054    5.396519
C      4.918593    0.934569    6.607596
C      4.215163   -0.382103    6.300740
C      5.162635   -1.479408    5.812283
C      5.825966   -1.207219    4.466355
O      6.681973   -2.317738    4.185269
C      7.288523   -2.221667    2.897282
C      8.337855   -3.325043    2.803271
C      9.093403   -3.342553    1.478842
C      8.257074   -3.860668    0.313380
O      9.092073   -3.890864   -0.842245
C      8.590781   -4.694152   -1.910714
C      7.425898   -4.038302   -2.652048
C      6.065070   -4.542610   -2.172458
C      4.921362   -3.850975   -2.904857
O      3.699581   -4.296824   -2.320722
C      2.545337   -3.661593   -2.864970
C      2.380182   -2.222772   -2.373125
C      2.570583   -2.039528   -0.865608
C      1.489783   -2.719926   -0.028882
O      1.727998   -2.614869    1.376495
C      1.693885   -1.279980    1.871468
C      1.620844   -1.302069    3.393656
C      0.398801   -2.033265    3.960720
C     -0.935166   -1.563497    3.390006
O     -1.024429   -0.141719    3.486766
C     -2.197835    0.349565    2.834735
C     -2.241380    1.863425    3.000654
C     -3.243917    2.575424    2.088583
C     -4.709704    2.210158    2.329479
O     -5.010923    0.840909    2.067869
C     -5.045578    0.503846    0.682963
C     -5.392222   -0.978986    0.579414
C     -5.230543   -1.545642   -0.827914
C     -3.768148   -1.683700   -1.240811
O     -3.711688   -2.271989   -2.540152
C     -2.361367   -2.374587   -2.995808
C     -2.351209   -3.012712   -4.381342
C     -0.939995   -3.171615   -4.940738
C     -0.339176   -1.851406   -5.413794
O      1.044644   -2.067522   -5.698683
C      1.652265   -0.978933   -6.397528
C      1.772735    0.270546   -5.528849
C      2.524570    1.390110   -6.239128
C      2.505710    2.670424   -5.411996
O      3.238044    3.671662   -6.115994
C      3.067129    4.983307   -5.580920
C      3.745838    5.175530   -4.226603
C      5.262275    4.968576   -4.299623
C      5.923235    5.045476   -2.924767
O      5.649211    6.316334   -2.335487
C      6.277502    6.500656   -1.066976
C      5.533438    5.807272    0.074566
C      4.168874    6.415004    0.412365
C      3.188768    6.466741   -0.751604
O      1.873141    6.648805   -0.226499
C      0.955497    7.085823   -1.227507
C     -0.448462    6.969471   -0.651880
C     -1.507357    7.579552   -1.571578
C     -2.928262    7.249325   -1.116203
O     -3.046192    7.515898    0.274955
C     -4.331129    7.190787    0.798288
C     -4.170052    7.025819    2.303087
C     -5.494526    6.737266    3.008995
C     -5.253129    6.272500    4.442228
O     -4.719429    4.950840    4.387044
C     -4.098711    4.535526    5.601666
C     -2.616547    4.898604    5.567218
C     -1.848318    4.234953    6.704280
C     -0.352331    4.512840    6.610878
O      0.293819    3.800649    7.664718
C      1.713421    3.938443    7.649059
C      2.138919    5.166309    8.450247
C      3.651004    5.370449    8.481437
C      4.395859    4.303854    9.275709
O      5.791713    4.587042    9.189451
C      6.572779    3.630122    9.898224
C      8.052023    4.006483    9.849111
C      8.657409    3.966717    8.439597
C      8.380688    5.207607    7.599541
O      8.989673    6.341633    8.202015
H    -11.763512  -10.425537   -6.857699
H    -11.851152  -12.812230   -5.316956
H    -10.450021  -12.254416   -6.249862
H    -10.427863  -10.119121   -4.943866
H    -11.847928  -10.628277   -4.056200
H     -9.174559  -12.148345   -4.036490
H    -10.602426  -12.547196   -3.084939
H     -8.935258  -11.316105   -1.701027
H     -8.911662  -10.006271   -2.877198
H    -10.644680  -11.403075   -0.150569
H    -11.890742  -11.664954   -1.397548
H    -13.055976  -10.672720    0.414871
H    -12.863126   -9.383397   -0.780290
H    -12.459535   -8.564097    1.495065
H    -11.243256   -9.781682    1.785094
H    -10.990432   -7.590165   -0.342156
H     -9.729536   -8.766087    0.148831
H     -9.714398   -5.749747    0.327874
H     -9.252705   -5.625804    2.018998
H     -7.757206   -7.819840    1.390256
H     -7.160082   -6.162878    1.371531
H     -8.284594   -7.552703   -1.117563
H     -6.598879   -7.548373   -0.667949
H     -8.251106   -5.034584   -1.245952
H     -6.533722   -5.062847   -0.764957
H     -5.906407   -4.099344   -2.811150
H     -7.614078   -4.035423   -3.326272
H     -7.065836   -5.578959   -5.230946
H     -5.394350   -5.628275   -4.710743
H     -5.270330   -3.095915   -5.017699
H     -6.903600   -3.114345   -5.633630
H     -4.589487   -4.693508   -6.877432
H     -6.244218   -4.542864   -7.534406
H     -3.877285   -3.793384   -8.925468
H     -5.482988   -3.297931   -9.529937
H     -3.177327   -1.449200   -8.736871
H     -4.759840   -0.876421   -9.215373
H     -2.948254   -2.587866  -11.001475
H     -4.510930   -1.892836  -11.466756
H     -3.537724    0.420305  -11.009576
H     -2.772250   -0.456429  -12.357480
H     -1.149385    1.257625  -11.811702
H      0.081711    0.679625  -10.689072
H     -0.861861    2.806683   -9.871984
H     -2.491253    2.130174   -9.889610
H     -1.832884    0.429246   -8.180068
H     -0.201510    1.056909   -8.166826
H     -0.956102    3.206722   -7.259330
H     -2.665548    2.723599   -7.454179
H     -2.865228    3.143168   -5.178682
H     -1.138209    3.257786   -4.745480
H     -3.060118    1.009346   -3.944711
H     -1.374929    1.059195   -3.501022
H     -2.999343    1.792697   -1.711945
H     -3.452555    3.187460   -2.691178
H     -1.089671    4.039014   -2.532604
H     -1.826197    3.783402   -0.933091
H      1.083648    3.778892   -1.470180
H      0.272521    3.467990    0.091101
H      2.024705    1.489043   -1.461357
H      1.208504    1.116710    0.035773
H      3.665455    1.658563    0.280755
H      3.362204    3.281052   -0.284248
H      1.836212    3.664269    1.693509
H      2.194454    2.008042    2.252603
H      3.291904    2.907577    4.257222
H      2.706138    4.466492    3.646614
H      5.037548    5.290094    3.428878
H      4.544576    4.995284    5.094999
H      6.183256    2.999543    3.438440
H      6.897996    4.297037    4.402954
H      5.671934    3.363553    6.446483
H      6.999777    2.381961    5.785910
H      5.871432    0.756864    7.119630
H      4.279027    1.539501    7.258602
H      3.424491   -0.222799    5.560422
H      3.738466   -0.741256    7.220536
H      4.603590   -2.421392    5.741114
H      5.938053   -1.661372    6.567485
H      6.438392   -0.301810    4.503627
H      5.071782   -1.108035    3.678379
H      7.763340   -1.240494    2.780243
H      6.515964   -2.342198    2.130820
H      7.870381   -4.300105    2.989629
H      9.058149   -3.186579    3.620006
H      9.483316   -2.344432    1.244107
H      9.976978   -3.985227    1.583486
H      7.414741   -3.189726    0.125021
H      7.883838   -4.865581    0.539019
H      9.425295   -4.795346   -2.613702
H      8.354482   -5.704570   -1.556651
H      7.479626   -2.947775   -2.552880
H      7.513165   -4.277679   -3.719080
H      5.988528   -5.626666   -2.324700
H      5.941950   -4.386243   -1.095996
H      5.019570   -2.766393   -2.797791
H      4.935022   -4.109396   -3.969149
H      2.575313   -3.700229   -3.959650
H      1.680072   -4.254342   -2.551496
H      3.118622   -1.588978   -2.878090
H      1.395666   -1.846733   -2.674976
H      2.567589   -0.964115   -0.659454
H      3.558761   -2.391811   -0.548519
H      1.460252   -3.790341   -0.251947
H      0.498466   -2.313879   -0.259110
H      2.612761   -0.762553    1.575742
H      0.840287   -0.738894    1.451458
H      2.515007   -1.799308    3.786501
H      1.637586   -0.270937    3.764343
H      0.498138   -3.113083    3.798174
H      0.395793   -1.875620    5.046627
H     -1.030161   -1.875381    2.343679
H     -1.756491   -2.016721    3.956198
H     -3.075771   -0.116326    3.292179
H     -2.149645    0.083678    1.773561
H     -2.451406    2.101919    4.049795
H     -1.242461    2.272978    2.802334
H     -3.132933    3.655159    2.240658
H     -2.968520    2.382330    1.046961
H     -5.365652    2.850489    1.728182
H     -4.959991    2.391906    3.379214
H     -5.800994    1.108959    0.169735
H     -4.069780    0.700181    0.236030
H     -4.781673   -1.554498    1.286905
H     -6.429680   -1.116634    0.908936
H     -5.770842   -0.931578   -1.557642
H     -5.699450   -2.535881   -0.867663
H     -3.234056   -2.325315   -0.529778
H     -3.279154   -0.704634   -1.270109
H     -1.921343   -1.373642   -3.026300
H     -1.787224   -2.991634   -2.294610
H     -2.970873   -2.424822   -5.068727
H     -2.827786   -3.998720   -4.314998
H     -0.962278   -3.866566   -5.789174
H     -0.286671   -3.639386   -4.194764
H     -0.421055   -1.094331   -4.630890
H     -0.864497   -1.501116   -6.309581
H      1.095791   -0.777093   -7.319395
H      2.652100   -1.315820   -6.692212
H      2.275487    0.016161   -4.588628
H      0.776955    0.628010   -5.248479
H      3.561475    1.089753   -6.433333
H      2.078794    1.590175   -7.221176
H      2.973371    2.489022   -4.439082
H      1.472274    3.000345   -5.257877
H      3.496216    5.683459   -6.306056
H      1.997805    5.214499   -5.510800
H      3.322386    4.480894   -3.493708
H      3.528436    6.189656   -3.872100
H      5.688897    5.743658   -4.948284
H      5.495018    3.996469   -4.749174
H      5.538967    4.242135   -2.288318
H      7.005802    4.918799   -3.036704
H      6.310607    7.578714   -0.876390
H      7.316294    6.153167   -1.114286
H      6.156890    5.858828    0.975459
H      5.396463    4.744555   -0.150467
H      4.303433    7.430379    0.806232
H      3.724162    5.845031    1.235858
H      3.441536    7.295454   -1.421664
H      3.198130    5.526106   -1.308563
H      1.047086    6.461094   -2.123954
H      1.183730    8.125017   -1.489278
H     -0.475691    7.457716    0.330614
H     -0.668649    5.912552   -0.463089
H     -1.375262    8.668686   -1.570989
H     -1.371071    7.234741   -2.603235
H     -3.652512    7.852266   -1.674980
H     -3.132531    6.188361   -1.303692
H     -5.028190    8.000257    0.559033
H     -4.702036    6.256646    0.360832
H     -3.448528    6.219925    2.484964
H     -3.713043    7.928654    2.727438
H     -6.039461    5.959465    2.461043
H     -6.109029    7.643980    3.011045
H     -6.200277    6.238942    4.991030
H     -4.570072    6.956463    4.957908
H     -4.606374    4.962847    6.474402
H     -4.209883    3.447319    5.654506
H     -2.498695    5.987720    5.616579
H     -2.192957    4.597399    4.601135
H     -2.226611    4.581113    7.674100
H     -2.011220    3.149797    6.688115
H     -0.159833    5.585996    6.708709
H      0.034202    4.165823    5.645760
H      2.093627    3.972897    6.621941
H      2.113331    3.032525    8.113712
H      1.744485    5.091834    9.470539
H      1.673500    6.060245    8.020138
H      3.869708    6.350249    8.924224
H      4.047396    5.416964    7.460593
H      4.211376    3.307921    8.864544
H      4.079142    4.322429   10.324337
H      6.422248    2.637309    9.458467
H      6.246745    3.599470   10.944224
H      8.196218    4.998755   10.291312
H      8.598958    3.291684   10.475866
H      9.745193    3.872972    8.553276
H      8.310601    3.073732    7.908416
H      7.311956    5.396805    7.478171
H      8.816681    5.083471    6.603203
H      8.668332    7.121993    7.718761
