21

C      0.031821    0.117940    0.271349
C     -1.230121    0.759660   -0.306271
C     -2.301135    0.955546    0.766899
N     -3.475010    1.573029    0.137484
C     -4.360919    1.767045    0.881781
O     -5.240248    1.955712    1.638075
C      1.099725   -0.075823   -0.805676
C      2.363742   -0.717278   -0.233021
N      3.336049   -0.869417   -1.322473
C      4.348796   -1.356257   -0.985154
O      5.358032   -1.844829   -0.633676
H     -0.220354   -0.851835    0.717286
H      0.430473    0.749551    1.074504
H     -0.981168    1.728891   -0.756374
H     -1.630133    0.132086   -1.112571
H     -2.563659   -0.016485    1.205615
H     -1.907431    1.598191    1.565798
H      0.703345   -0.704700   -1.612754
H      1.352310    0.892105   -1.256558
H      2.771057   -0.079514    0.562959
H      2.114829   -1.694190    0.202777
