28

C      0.280037    0.735542    1.121191
C     -1.003287    0.306419    0.763517
C     -1.224375   -0.256084   -0.491583
C     -0.152080   -0.380848   -1.377762
C      1.131217    0.048323   -1.020290
C      1.352156    0.610800    0.234764
O      2.547360    1.069160    0.714323
C      3.669235    1.009304   -0.174445
C      4.871698    1.591910    0.563224
O      5.204797    0.776893    1.686052
O     -2.418755   -0.716044   -0.971214
C     -3.541770   -0.638904   -0.096201
C     -4.760212   -1.206798   -0.817893
O     -5.900817   -1.212865    0.032521
H      0.442595    1.174466    2.102866
H     -1.800623    0.430120    1.488256
H     -0.316060   -0.818622   -2.359818
H      1.928062   -0.075267   -1.745487
H      3.473315    1.604592   -1.073228
H      3.874860   -0.035594   -0.434365
H      5.744345    1.636146   -0.094319
H      4.654457    2.597833    0.936038
H      4.373122    0.647423    2.180180
H     -3.361461   -1.221747    0.815656
H     -3.746941    0.401428    0.185094
H     -4.570611   -2.226842   -1.169633
H     -4.990570   -0.603216   -1.702122
H     -5.759694   -1.901858    0.704679
