22

C      0.681254   -0.417433   -0.196805
C     -0.615210    0.297676    0.186950
C     -1.816624   -0.302861   -0.539601
C     -3.112778    0.398728   -0.159114
O     -4.185071   -0.201775   -0.871930
C      1.883831    0.186441    0.525061
C      3.177865   -0.525604    0.153419
O      4.266726    0.058028    0.856220
H      0.831868   -0.349005   -1.281073
H      0.600290   -1.482630    0.051805
H     -0.767451    0.225498    1.270742
H     -0.533450    1.363682   -0.057864
H     -1.674295   -0.238861   -1.625684
H     -1.902805   -1.372663   -0.311521
H     -3.309294    0.301454    0.913350
H     -3.073307    1.461172   -0.419643
H     -4.998827    0.259003   -0.605134
H      1.972783    1.253321    0.285115
H      1.741029    0.134390    1.611628
H      3.131202   -1.584996    0.424045
H      3.379056   -0.454032   -0.920312
H      4.323208    0.990470    0.586257
