17

C     -1.991488    1.144991    0.762169
C     -0.832626    0.208945    1.088935
O     -0.127988   -0.079176   -0.127889
C      0.961421   -0.983187    0.109053
C      1.644514   -1.271117   -1.223762
O      2.180824   -0.065374   -1.764460
O     -1.490144    2.373970    0.240573
H     -2.578685    1.365743    1.657731
H     -2.646962    0.705928    0.003587
H     -1.213404   -0.720475    1.525267
H     -0.142716    0.694438    1.788007
H      1.668024   -0.508780    0.799005
H      0.582372   -1.913752    0.544449
H      0.930868   -1.671527   -1.950573
H      2.463198   -1.984566   -1.096071
H      1.453111    0.583340   -1.723813
H     -0.860321    2.120597   -0.460262
