354

O     -9.875408   -2.493502    2.227284
C    -11.233201   -2.819978    2.478785
C    -12.175495   -1.981032    1.620481
C    -12.367771   -2.488359    0.183093
C    -11.154373   -2.305410   -0.726802
O    -10.060625   -3.132896   -0.330344
C    -10.124147   -4.448356   -0.884537
C     -8.981605   -5.284047   -0.314502
C     -7.610461   -4.757626   -0.739202
C     -6.482098   -5.600774   -0.149652
O     -5.212422   -5.067273   -0.519333
C     -4.743931   -5.560199   -1.773492
C     -3.495243   -4.781386   -2.168597
C     -2.877172   -5.339532   -3.450659
C     -1.647588   -4.549091   -3.880542
O     -2.055138   -3.255767   -4.326471
C     -0.930627   -2.468989   -4.714904
C     -1.413237   -1.070814   -5.082738
C     -0.234376   -0.156820   -5.414736
C     -0.646694    1.295921   -5.620192
O     -1.602106    1.381046   -6.674896
C     -1.770929    2.726771   -7.117734
C     -2.940906    2.795716   -8.090283
C     -4.291987    2.961101   -7.395563
C     -4.676952    1.816302   -6.465036
O     -6.001057    2.087730   -6.003428
C     -6.521959    1.042675   -5.183063
C     -7.957802    1.420431   -4.840571
C     -8.741669    0.323116   -4.123991
C     -8.184378   -0.094727   -2.766981
O     -7.953203    1.060328   -1.967343
C     -8.097973    0.841926   -0.564017
C     -7.194332   -0.260137   -0.017627
C     -7.245456   -0.305283    1.510186
C     -6.569587   -1.549369    2.075493
O     -5.224603   -1.604460    1.610079
C     -4.524915   -2.722580    2.154769
C     -3.131411   -2.752422    1.542644
C     -2.200658   -3.764005    2.201385
C     -2.650725   -5.211457    2.046072
O     -1.652010   -6.038940    2.640332
C     -1.946412   -7.425312    2.507966
C     -0.770737   -8.234848    3.047073
C     -0.561808   -8.033638    4.554375
C      0.665371   -8.788407    5.060518
O      1.825374   -8.217799    4.465546
C      3.016631   -8.935783    4.765464
C      4.185001   -8.255441    4.056314
C      3.998590   -8.244240    2.538204
C      5.125113   -7.502198    1.830081
O      4.816937   -7.477738    0.436726
C      5.834934   -6.899233   -0.376482
C      6.093974   -5.427970   -0.049726
C      6.694815   -4.652041   -1.225506
C      5.652741   -4.282350   -2.280071
O      4.704377   -3.388561   -1.697742
C      3.581030   -3.136560   -2.537332
C      2.494694   -4.195103   -2.356351
C      2.057105   -4.416046   -0.901936
C      1.593033   -3.153586   -0.181380
O      0.568046   -2.529738   -0.953486
C      0.079019   -1.342748   -0.326431
C     -1.060179   -0.815444   -1.186489
C     -1.636416    0.493872   -0.664845
C     -2.835170    0.931097   -1.498517
O     -3.229201    2.241668   -1.092311
C     -4.398142    2.665856   -1.792805
C     -4.781630    4.063210   -1.322046
C     -3.722151    5.106067   -1.682023
C     -4.157196    6.502483   -1.253980
O     -3.153571    7.433597   -1.658650
C     -3.519023    8.794493   -1.423724
C     -4.509085    9.325118   -2.463934
C     -3.981293    9.171294   -3.890628
C     -5.044893    9.519198   -4.933286
O     -4.534904    9.552723   -6.269099
C     -3.976536    8.306005   -6.691361
C     -3.749668    8.348976   -8.198701
C     -3.191942    7.045018   -8.784641
C     -1.789479    6.698675   -8.286996
O     -1.867946    6.259255   -6.933691
C     -0.589275    6.184962   -6.308618
C     -0.809339    5.962389   -4.816366
C      0.512109    5.820329   -4.075555
C      0.310739    5.689064   -2.571616
O      1.602511    5.551682   -1.981764
C      1.541396    5.505315   -0.561838
C      2.936904    5.281282    0.016042
C      3.885266    6.481458   -0.107879
C      4.296016    6.842293   -1.531372
O      4.880682    5.704295   -2.160084
C      5.150443    5.947366   -3.538437
C      5.531135    4.636389   -4.218810
C      4.385198    3.619496   -4.168569
C      4.668236    2.380338   -5.015258
O      5.903877    1.745167   -4.696175
C      5.874839    1.039258   -3.456195
C      7.161344    0.225226   -3.351083
C      7.207926   -0.654127   -2.106067
C      7.424846    0.130887   -0.815668
O      7.430945   -0.758436    0.302330
C      6.124114   -0.951030    0.851149
C      6.209721   -2.002785    1.951642
C      4.884072   -2.241916    2.668376
C      4.406532   -1.038862    3.476866
O      3.181994   -1.391863    4.121375
C      2.660576   -0.298054    4.878941
C      1.335158   -0.724251    5.500067
C      0.738973    0.388122    6.363994
C     -0.600429   -0.006387    6.985542
O     -1.555773   -0.388765    6.000379
C     -2.217452    0.718552    5.387069
C     -2.949447    0.195610    4.159397
C     -3.862542    1.215272    3.478706
C     -3.213126    2.547086    3.115871
O     -1.957487    2.313730    2.489233
C     -1.485965    3.413633    1.721302
C     -1.035686    4.598084    2.573501
C     -0.117459    4.250933    3.746575
C      1.047170    3.334310    3.384364
O      1.963674    3.274539    4.478762
C      3.010702    4.240723    4.404790
C      4.184497    3.682723    3.605339
C      5.331510    4.691625    3.520257
C      6.522026    4.145555    2.738140
O      6.989213    2.969925    3.389399
C      8.149290    2.424115    2.768480
C      8.417638    1.046145    3.361846
C      8.684614    1.086453    4.870900
C      8.915560   -0.309896    5.447014
O      7.740715   -1.092941    5.251098
C      7.784385   -2.382046    5.857675
C      8.704502   -3.336762    5.098483
C      8.598210   -4.786234    5.579349
C      7.294553   -5.483376    5.202438
O      7.171580   -5.586706    3.791644
H     -9.698274   -2.734809    1.293182
H    -11.419254   -2.608274    3.536506
H    -11.381345   -3.893213    2.321783
H    -13.162309   -1.989457    2.099767
H    -11.833303   -0.939644    1.595092
H    -12.669155   -3.540938    0.215574
H    -13.203705   -1.931249   -0.257678
H    -10.812982   -1.266762   -0.670869
H    -11.419043   -2.501347   -1.772501
H    -11.076632   -4.918973   -0.620472
H    -10.049178   -4.390436   -1.976257
H     -9.095458   -6.321716   -0.648680
H     -9.042075   -5.277703    0.780621
H     -7.479706   -3.716947   -0.421377
H     -7.541812   -4.745819   -1.832797
H     -6.536322   -5.564871    0.943727
H     -6.562381   -6.653125   -0.446602
H     -4.510838   -6.625825   -1.667409
H     -5.512778   -5.442362   -2.544550
H     -2.762953   -4.819025   -1.353316
H     -3.755300   -3.722565   -2.289626
H     -3.625514   -5.316006   -4.251999
H     -2.591637   -6.385521   -3.289381
H     -1.151188   -5.070421   -4.706918
H     -0.942345   -4.456156   -3.046546
H     -0.436702   -2.937989   -5.573639
H     -0.218299   -2.414529   -3.884282
H     -1.998971   -0.657456   -4.254257
H     -2.104455   -1.136008   -5.931955
H      0.245918   -0.527017   -6.328833
H      0.511552   -0.198863   -4.612216
H      0.243720    1.885549   -5.869734
H     -1.088905    1.703223   -4.703795
H     -0.853459    3.031797   -7.633536
H     -1.934780    3.390902   -6.263357
H     -2.800455    3.662379   -8.746701
H     -2.963293    1.902180   -8.725140
H     -5.069574    3.072970   -8.162411
H     -4.307149    3.903242   -6.831911
H     -4.660253    0.862912   -7.004653
H     -4.004612    1.761647   -5.602809
H     -5.912003    0.950484   -4.278208
H     -6.498653    0.096397   -5.735037
H     -8.487513    1.677042   -5.767481
H     -7.958670    2.343766   -4.247833
H     -9.761406    0.699944   -3.972681
H     -8.823789   -0.560044   -4.768193
H     -8.907102   -0.766226   -2.289549
H     -7.238689   -0.633685   -2.887520
H     -9.150510    0.626472   -0.346564
H     -7.858162    1.792974   -0.075981
H     -7.506175   -1.228626   -0.424163
H     -6.166712   -0.099329   -0.364287
H     -6.744544    0.589008    1.900377
H     -8.284071   -0.274595    1.857294
H     -7.103204   -2.450068    1.753048
H     -6.581308   -1.505513    3.170499
H     -5.068549   -3.643094    1.920806
H     -4.463965   -2.613735    3.243002
H     -3.210233   -2.951664    0.467256
H     -2.684537   -1.754585    1.622071
H     -2.085237   -3.529632    3.267288
H     -1.197223   -3.659096    1.770823
H     -3.605814   -5.383385    2.553020
H     -2.752697   -5.466026    0.986433
H     -2.095345   -7.668617    1.449638
H     -2.864165   -7.662418    3.057701
H     -0.940774   -9.298125    2.841922
H      0.137716   -7.934895    2.511030
H     -1.449877   -8.378915    5.095941
H     -0.435343   -6.965288    4.765895
H      0.737508   -8.691821    6.149360
H      0.591058   -9.851163    4.802963
H      2.920949   -9.974022    4.427841
H      3.184836   -8.928063    5.847995
H      5.118713   -8.767446    4.314833
H      4.263823   -7.220300    4.410810
H      3.940971   -9.271336    2.156577
H      3.044872   -7.772864    2.269550
H      6.082728   -8.008828    1.992611
H      5.182821   -6.478613    2.211695
H      5.492190   -7.012458   -1.408951
H      6.756462   -7.485830   -0.282577
H      5.177937   -4.942907    0.304729
H      6.799213   -5.384731    0.789610
H      7.134447   -3.727706   -0.832194
H      7.503849   -5.230532   -1.685307
H      6.145685   -3.772371   -3.115369
H      5.155926   -5.176690   -2.667293
H      3.890753   -3.072404   -3.587330
H      3.189399   -2.150481   -2.266968
H      1.628181   -3.920624   -2.968452
H      2.853475   -5.156206   -2.742806
H      2.868107   -4.879706   -0.330540
H      1.228925   -5.136026   -0.915475
H      1.198412   -3.422822    0.804891
H      2.426530   -2.456970   -0.040675
H      0.887680   -0.605709   -0.265481
H     -0.276134   -1.570456    0.684053
H     -0.690676   -0.668783   -2.207257
H     -1.844120   -1.579693   -1.257796
H     -0.868094    1.276201   -0.682911
H     -1.943025    0.390600    0.382549
H     -3.665849    0.229781   -1.356280
H     -2.570133    0.958357   -2.560976
H     -4.207032    2.664955   -2.872285
H     -5.219178    1.973586   -1.578952
H     -4.916617    4.055348   -0.233426
H     -5.741046    4.339846   -1.774656
H     -2.761397    4.865420   -1.211646
H     -3.537093    5.099890   -2.763588
H     -5.115190    6.744728   -1.724110
H     -4.273586    6.549421   -0.165412
H     -2.596661    9.383493   -1.472822
H     -3.920729    8.907095   -0.409986
H     -4.714590   10.382063   -2.258014
H     -5.462828    8.793920   -2.375615
H     -3.096753    9.802700   -4.037430
H     -3.650474    8.138921   -4.047484
H     -5.882447    8.812992   -4.887811
H     -5.450902   10.515737   -4.728748
H     -4.651125    7.481974   -6.432855
H     -3.023019    8.182223   -6.175432
H     -3.083129    9.185502   -8.443625
H     -4.702315    8.580725   -8.691815
H     -3.158433    7.150407   -9.875291
H     -3.882054    6.224874   -8.553268
H     -1.135245    7.573863   -8.374884
H     -1.370796    5.885904   -8.890265
H     -0.020287    5.359541   -6.749485
H     -0.039337    7.120460   -6.463502
H     -1.430621    5.072889   -4.658431
H     -1.385080    6.803100   -4.409454
H      1.059735    4.945713   -4.447979
H      1.157145    6.684954   -4.277111
H     -0.185950    6.581346   -2.173813
H     -0.293356    4.804769   -2.339373
H      0.895101    4.672882   -0.261198
H      1.113339    6.437540   -0.176100
H      3.394319    4.401840   -0.452081
H      2.828893    5.060254    1.082938
H      4.793896    6.234965    0.456002
H      3.437930    7.358006    0.374734
H      3.434046    7.201762   -2.102385
H      5.037648    7.649040   -1.501233
H      5.976958    6.662201   -3.618337
H      4.268353    6.374884   -4.030289
H      5.802085    4.841373   -5.260833
H      6.411150    4.211994   -3.721250
H      4.207241    3.325632   -3.127969
H      3.460020    4.082861   -4.530355
H      3.844450    1.661049   -4.935888
H      4.729016    2.674655   -6.068981
H      5.805365    1.754612   -2.631847
H      5.006098    0.371493   -3.428527
H      8.030588    0.893292   -3.385973
H      7.243635   -0.412916   -4.240315
H      6.291498   -1.248078   -2.040930
H      8.022054   -1.382705   -2.209222
H      6.679214    0.920674   -0.673855
H      8.407901    0.613013   -0.846815
H      5.779038    0.007008    1.252164
H      5.427226   -1.280130    0.073608
H      6.984721   -1.726474    2.673235
H      6.555668   -2.944550    1.511648
H      4.110768   -2.531912    1.946466
H      4.991030   -3.100349    3.343632
H      5.151309   -0.766217    4.232122
H      4.226643   -0.178536    2.824327
H      3.377827   -0.023637    5.660864
H      2.506262    0.560690    4.216987
H      1.486973   -1.629461    6.101020
H      0.641528   -1.007044    4.698666
H      0.609505    1.282717    5.747681
H      1.439310    0.649372    7.165987
H     -0.997899    0.805400    7.606212
H     -0.451991   -0.871508    7.641146
H     -2.924071    1.148210    6.105517
H     -1.494210    1.485417    5.097921
H     -3.546840   -0.680131    4.441138
H     -2.208672   -0.180178    3.442362
H     -4.229074    0.754589    2.553918
H     -4.741909    1.404908    4.105197
H     -3.058101    3.148166    4.017761
H     -3.885269    3.098641    2.447634
H     -2.250506    3.728915    1.003350
H     -0.637896    3.048968    1.132285
H     -0.534146    5.324052    1.922310
H     -1.918084    5.108099    2.978817
H      0.259126    5.184662    4.181763
H     -0.696619    3.779935    4.550069
H      1.547040    3.657023    2.466135
H      0.682924    2.315198    3.220375
H      3.332975    4.441085    5.432265
H      2.646622    5.185447    3.984673
H      4.519677    2.751284    4.078356
H      3.858639    3.400612    2.597795
H      5.656545    4.940862    4.537855
H      4.981599    5.616531    3.048270
H      6.224247    3.905917    1.710837
H      7.320855    4.895077    2.711241
H      7.982854    2.325487    1.689549
H      9.001089    3.092215    2.936466
H      9.267040    0.585558    2.844976
H      7.537148    0.423366    3.179331
H      7.824920    1.538906    5.379472
H      9.559897    1.713545    5.074890
H      9.129051   -0.230091    6.518728
H      9.769838   -0.778809    4.948589
H      6.756727   -2.756242    5.839359
H      8.078897   -2.295002    6.909870
H      8.514970   -3.266129    4.021543
H      9.742625   -3.010617    5.233571
H      8.731534   -4.824437    6.666631
H      9.429063   -5.344877    5.130441
H      7.296920   -6.501294    5.605272
H      6.413751   -4.973718    5.603132
H      6.898884   -4.714048    3.456380
