46
 energy: -65.394920705386 gnorm: 0.000442802585 xtb: 6.7.1 (edcfbbe)
O           -2.57326207880088        2.28103754664486        1.85198282998321
C           -2.51469500975788        1.32223582449720        1.20041224745820
N           -2.22916627167591        0.28804642742382        0.69010106246814
C           -2.59475821645817       -0.62724572926240       -0.33442516746663
C           -1.96945423862583       -1.99458710333028       -0.04625659076789
C           -0.46906110762864       -1.90840245561334        0.23714134828871
C            0.34148851008953       -1.45205822085803       -0.97371696132217
C            1.83998853088228       -1.34694787444402       -0.69142431470595
C            2.19576381816400       -0.32614611143018        0.39695636802433
N            1.68387640065538        0.96796068964692        0.13151040307290
C            0.73641131166006        1.59839288066175       -0.19163747266191
O           -0.05201288906713        2.39513858510198       -0.50865862655915
H           -2.24675890610012       -0.24031085371135       -1.29753576755604
H           -3.68458372013521       -0.71120242156679       -0.38263004396058
H           -2.15633590321148       -2.64722413636797       -0.90073259480338
H           -2.46086080083312       -2.42836906437376        0.82665441441645
H           -0.32891862240430       -1.20839474344234        1.06186769686981
H           -0.11085293163281       -2.88938398724446        0.55855002764563
H           -0.02073058834751       -0.47983005627379       -1.31160677602101
H            0.19250058450287       -2.15887642396679       -1.79327591215560
H            2.22590751107351       -2.31581338316264       -0.36896244760571
H            2.35219618509341       -1.06903861456091       -1.61524698780097
H            1.82581095346615       -0.65990852888453        1.37179232023381
H            3.28233560621752       -0.22105069380540        0.46172879188667
C           -4.22077028254197        4.43930676554269       -2.25642291882908
C           -3.06977288146034        5.25545368805146       -2.84423015683424
C           -1.70320314832167        4.56779893409735       -2.77051563934602
C           -1.68250993395569        3.15349477246994       -3.35826826516989
O           -2.15760093295542        2.16647697418031       -2.46671827144120
C           -4.13496267782160        4.24850347763178       -0.74039322904537
C           -5.00030202275451        3.07623642770106       -0.28425493317681
O           -4.44292257075495        1.82409318378556       -0.62146982212327
H           -4.24306770923217        3.46633512476364       -2.74997524479078
H           -5.16303993972747        4.94017018470591       -2.49372090147618
H           -3.29645077082645        5.45875656194827       -3.89427679610295
H           -3.00515265564134        6.21646065028774       -2.32834324675347
H           -0.98352719196530        5.17873573630851       -3.31947924998765
H           -1.35956299500658        4.51380152724256       -1.73540265378574
H           -2.31936734973466        3.09272191813669       -4.24462526006720
H           -0.65442405455600        2.90388108183272       -3.65833518123006
H           -1.61607274573293        2.22926997813357       -1.66495558145306
H           -3.10866138647191        4.04686650343143       -0.43147046914234
H           -4.46127406258039        5.15744556507855       -0.23243603010359
H           -5.10517981893013        3.08306962178522        0.80503009350182
H           -6.00480297874643        3.16164991226519       -0.72797553692419
H           -3.89007840890894        1.93568980272415       -1.41145279578368
