142
 energy: -198.271479889384 gnorm: 0.000367202121 xtb: 6.7.1 (edcfbbe)
C            0.05159568577033        0.86953886981933        1.10754787616213
C           -0.66482765854185        0.83997406842663        2.27378379936357
C           -0.03262629299589        0.55131997114059        3.49845772923885
C            1.36536073103567        0.30403134315840        3.51942081395717
C            2.00880703051892       -0.00705639324463        4.73344677228760
C            1.29896379882975       -0.07143443930998        5.90153542005282
C           -0.07631859940002        0.18402970099964        5.90735447135837
C           -0.73267504721372        0.48972844251397        4.73814926247990
N           -2.08162194543413        0.72816625126637        4.81301589696945
C           -3.08223013800117        0.98644349935686        4.21986992510875
O           -4.14810022091763        1.23300574663589        3.83830376946383
C            2.07783356456694        0.37620171265552        2.29324443867121
C            1.42920456518345        0.63333360878225        1.10756730440395
N            3.43015007441998        0.16622031021793        2.33931743799701
C            4.47433045407615        0.25171657036053        1.77698466786829
O            5.59321758027441        0.24619127932272        1.46561490513869
H           -0.44525184371305        1.08107985777798        0.17259712713576
H           -1.72771897008946        1.03325147128526        2.25837801564744
H            3.07122330048999       -0.19474214088101        4.71853036746389
H            1.79246532874769       -0.31935880491372        6.82957101333946
H           -0.63869167763344        0.13959889761548        6.82766937119649
H            1.99532145746242        0.65940618175368        0.18944988239831
O           -6.41436639770675       -3.70919915023678       37.07897992344032
C           -6.86899246350919       -2.67157259099234       36.23268291007421
C           -6.45559617058333       -2.99034645177670       34.79903839423665
C           -4.93890697833496       -3.00081452514159       34.60635541448406
C           -4.33931932569386       -1.59968588177003       34.55370703307548
O           -4.84750340373205       -0.92518653322875       33.42517275803890
C           -4.35654731925207        0.38553858979318       33.29107530239585
C           -4.96612422768366        1.01235854160663       32.04318319150828
C           -4.51591454270392        2.45745256010136       31.85416844299470
C           -5.08633652243759        3.05729548379929       30.57361084755405
O           -4.52727246998228        2.39308260654511       29.46742333181272
C           -5.03180220699900        2.84504014216819       28.23312139345170
C           -4.36374852682122        2.06697608469118       27.10656421188158
C           -2.86564882518585        2.34833325076424       27.02782284079008
C           -2.22386212369559        1.61947972247184       25.84296454604300
O           -2.79983258553068        1.92526139584529       24.59380664478962
C           -2.50306649939405        3.21365797865036       24.10045373553168
C           -3.06997685496740        3.31766511495031       22.68707469147050
C           -2.98201400872466        4.72595717466845       22.10640929140802
C           -1.55775729864610        5.14692225416051       21.75552270187181
O           -1.61536527883390        6.45497011187617       21.22565678701278
C           -0.36535536070425        7.03392312521840       20.93743468366180
C            0.33898868316165        6.43991066491555       19.71296269285122
C           -0.56027113335580        6.49031278728268       18.48099823846842
C            0.07181717719369        5.79362355834744       17.28187144664310
O            0.23140841180761        4.42220624393307       17.57965243659201
C            0.90929182731525        3.68057860688137       16.59439278297343
C            0.04652601143782        3.34084671728623       15.37427828004061
C            0.82403502256439        2.52162887378508       14.35054117550818
C           -0.04324400541856        2.15779754911539       13.15062518776798
O            0.75889562169549        1.52040705157560       12.18673251815814
C            0.04989916465582        1.15370412245583       11.02713201188553
C            1.03724019102856        0.63387904580614        9.98644431447831
C            2.04922756444406        1.69190201369984        9.54591907773472
C            1.43087494327274        2.75929382454501        8.63713123122937
O            2.29105278068315        3.84429047906203        8.35520452985645
C            3.40656724908808        3.57967905902100        7.53160437342631
C            3.05066315837118        3.24449660949905        6.08018207417497
C            2.23383877771269        4.35872549927846        5.43126695988586
C            1.66596004334233        3.92844051815998        4.07690775608318
O            2.62945569889067        3.46708308222975        3.16073973291255
C            3.48500806336878        4.46283569596837        2.64078358701636
C            4.15459592539496        3.90695017107506        1.38695385736459
C            3.11748102515389        3.64115819592996        0.29792258159568
C            3.67721134513904        2.86496567139906       -0.89720782367988
O            4.12673084167121        1.57006585227512       -0.55584173714573
H           -6.68529805263148       -3.52052996490729       37.98255116668106
H           -7.96494139132785       -2.59248642483282       36.28465113285479
H           -6.44319418425583       -1.70910059429284       36.54871911511202
H           -6.89662938144301       -2.25613104202076       34.12532171388395
H           -6.84977776998068       -3.97673417294660       34.55208952404247
H           -4.70651911734255       -3.49826736649670       33.66438131831472
H           -4.47753515488021       -3.55896175044823       35.42102693411254
H           -4.58067694856918       -1.03317839998757       35.46717593726273
H           -3.24090090856289       -1.66609170500250       34.48656305124827
H           -4.61987706105929        0.97984822445809       34.18334268830480
H           -3.25682552332738        0.37220075585893       33.21366076357979
H           -6.05303035434918        0.96700148485261       32.12924865263648
H           -4.67317385961570        0.42699001816827       31.17222520658945
H           -3.42717625204136        2.49561458851564       31.79583183764626
H           -4.83820748826317        3.06601645738139       32.70136759262847
H           -6.18363140919415        2.95247453003641       30.56145408641794
H           -4.85133650623886        4.13385449220538       30.52187957867383
H           -6.12375774457373        2.69664265251689       28.19920551297752
H           -4.83712876024643        3.92507101698552       28.12157933872145
H           -4.52141858971880        1.00165426035992       27.27822584502678
H           -4.83471157514480        2.33523627365549       26.15988878304001
H           -2.38509849452727        2.01412774070544       27.94707649148303
H           -2.69937541315606        3.42369844094430       26.93456377563750
H           -1.14354924501104        1.83338195440498       25.82064430455960
H           -2.36564347713450        0.54147613290840       25.95605800333307
H           -1.41301828657853        3.36731963796952       24.10065813672798
H           -2.95743403087151        3.98969489966672       24.73374620180511
H           -2.54676351783917        2.61059827515557       22.04195210342171
H           -4.11580364299656        3.01034573487097       22.73382933984471
H           -3.39531998463923        5.44981491540636       22.81086254123768
H           -3.57627654646743        4.77959075840685       21.19319612463061
H           -1.13473873783172        4.44512320666983       21.02362508759007
H           -0.91555033414092        5.14127579256345       22.64987681251541
H            0.29683309115653        6.95907946137108       21.81478880986423
H           -0.58673248467893        8.08964336463306       20.75543048623347
H            1.25531223402674        7.00658553268905       19.53640070755748
H            0.61515481942721        5.40227432818257       19.90182431993437
H           -0.77152931920646        7.52767192919919       18.21547928320352
H           -1.50444488627237        5.99808197253167       18.71519904927949
H           -0.57284692944114        5.92780046286995       16.40136086430532
H            1.05456996838584        6.23904206259329       17.05629176644108
H            1.81288914253857        4.21970261632023       16.27023416563321
H            1.21674098754422        2.75639432424113       17.09215231845097
H           -0.30147039957976        4.26317844246976       14.90489157028459
H           -0.83070840365381        2.78564303155998       15.71203443713419
H            1.19914467123508        1.60395799274897       14.80545551141283
H            1.68354509412589        3.08977226229968       13.99100119892088
H           -0.49302223454300        3.06781266557169       12.71933205433913
H           -0.86607206378092        1.49330913332604       13.46073078595629
H           -0.68662389089087        0.36946622517138       11.26923076909165
H           -0.50547358806337        2.02025772797895       10.63646815300074
H            0.47607354939242        0.26636217178853        9.12531650642219
H            1.57690240344802       -0.20358264025450       10.43097618270016
H            2.86386677597418        1.19484582357434        9.01536464535288
H            2.46277208275111        2.17386918448073       10.43235039640078
H            1.06646870198847        2.29380214775862        7.71071318649901
H            0.58201036641104        3.22882245147930        9.13985239101738
H            4.02418600461881        2.77578361666873        7.95355375655721
H            3.98413576234980        4.50794181801281        7.56442803710007
H            2.48181582000475        2.31440441102758        6.04022405382066
H            3.97485738474953        3.08319811659425        5.52397258446081
H            2.85405154924381        5.24945244538210        5.31229124721717
H            1.39985087171882        4.62043611228510        6.08440181675758
H            0.98831491132887        3.08092416290433        4.21389893988261
H            1.09899125314349        4.76357795842747        3.63497474619157
H            4.24984261987553        4.74335724555916        3.37966797614479
H            2.90318384635348        5.36321452959840        2.38988619440771
H            4.64717543997400        2.97365628495128        1.66321854689387
H            4.90986449830633        4.61389765174234        1.03750068794563
H            2.71380368697491        4.58791698558411       -0.06659480948485
H            2.30368892769756        3.06615966324549        0.74156526556841
H            4.48199600114158        3.43746722640379       -1.37483849317309
H            2.88004130103479        2.71988462663334       -1.63271865235935
H            5.02737525957562        1.62609656110128       -0.22068478795717
