60
 energy: -82.382597697550 gnorm: 0.000232033027 xtb: 6.7.1 (edcfbbe)
O            6.89789132833671       -0.70839727812996       -1.25840199725126
C            6.02321209935511       -0.68265836503340       -0.49585920145844
N            5.27999982247356       -0.72766974801716        0.42839156256924
C            3.94310048397721       -0.50612017821719        0.85982573188733
C            3.52495941435820        0.95087043822097        0.64791211304691
C            2.10071275781272        1.16515173796596        1.14984430177901
C            1.11097417369540        0.24176384070013        0.43353716343467
C            1.54379146078484       -1.21129651516838        0.63472168229184
C            2.96805387898889       -1.43741794722904        0.13541692904830
C           -0.30594142898475        0.50506127484875        0.95600530732471
C           -1.43543809762045       -0.26527593944546        0.26201472687009
C           -2.76395341495453        0.04683885821477        0.95695414467286
C           -3.92103671200999       -0.70825363775032        0.31098315733821
C           -4.02926180520653       -0.37313928120414       -1.17947908818349
C           -2.70291982539218       -0.66702474709685       -1.88056871405746
C           -1.55355845350268        0.08992954034007       -1.22042500353698
N           -4.33928093813725        1.00483973304304       -1.35551969376171
C           -5.19767646229459        1.81745143827511       -1.33828874213454
O           -5.85864041060410        2.77778013601579       -1.37266105929865
H            3.93582737600842       -0.73451210772784        1.93218819036247
H            4.21554033243206        1.61135326652997        1.17560482193363
H            3.58384148858045        1.18477220293271       -0.41785610004552
H            2.06235466502648        0.97091090626163        2.22428096946890
H            1.81467225284550        2.20640097750921        0.98993533319097
H            1.14775678192047        0.47263119381842       -0.63541447389699
H            1.48583879358681       -1.46052617474538        1.69679857672352
H            0.87372057641650       -1.88136948414695        0.09532058579022
H            3.02122170296846       -1.23759428642559       -0.93770568425068
H            3.26445868820632       -2.47537103178519        0.29848023791427
H           -0.51350704024658        1.57391972846693        0.86001154189296
H           -0.32931309849653        0.26383022811983        2.02215911936174
H           -1.24803507852146       -1.34024954132094        0.35321690277401
H           -2.70074119770263       -0.21978687911479        2.01405763948129
H           -2.95835181243475        1.11955237781202        0.89255830547119
H           -4.85953215666119       -0.45433714425705        0.80664947366178
H           -3.76449800613383       -1.78416243234705        0.40901910912766
H           -4.83709737442011       -0.96324776614824       -1.63023386350004
H           -2.51689462061966       -1.74157575509008       -1.83100233930777
H           -2.77724984074140       -0.38276385697960       -2.93155074202872
H           -0.62764259923452       -0.15249568801099       -1.74348691766802
H           -1.73033525398619        1.16270015467970       -1.31883608701436
C           -8.14161152710239        1.87806641007465       -3.73050143547630
C           -9.05685567914649        0.96841752014542       -2.90827337329333
C          -10.23253286268331        0.51058070612977       -3.77365260322085
C           -8.28044831497866       -0.27511442617321       -2.42874762201666
O           -7.19312041000117        0.01437794642106       -1.58524363464266
C           -9.62540301840752        1.73194866935386       -1.69291671459235
O           -8.67250191572295        2.10730791454913       -0.72469120145061
H           -7.81843176071182        1.36282411229514       -4.63215293351407
H           -7.25391374110729        2.15387571588469       -3.16893469735729
H           -8.66882182566458        2.78449838433017       -4.02234281476968
H           -9.87231797727654       -0.04092977203908       -4.63861920598941
H          -10.90164313924677       -0.13519473879728       -3.20936499092361
H          -10.79965992944234        1.36934407494048       -4.12517653641259
H           -7.86472771961586       -0.80443033976972       -3.29124469987078
H           -8.98129441026384       -0.95262041729718       -1.91592014941613
H           -7.54316976772241        0.60105181958445       -0.89182873480308
H          -10.17175358497115        2.61597334892319       -2.05079501823035
H          -10.33328424282822        1.08999542840779       -1.15969689014825
H           -8.02654187372704        2.70834978427933       -1.12323537227696
