219
 energy: -288.021682135585 gnorm: 0.000388768928 xtb: 6.7.1 (edcfbbe)
C           -1.58553535385207       -2.43806033212376       -0.11255855554784
C           -1.30501339293099       -1.03480119420346        0.44305113531651
C           -0.35869689506343       -1.20517984153421        1.63473164698649
C           -2.63855500320027       -0.40998013728766        0.87845727868535
C           -2.51743156622218        1.08397953425902        1.18549658856092
C           -1.99039153485653        1.84417249048596       -0.03550812295457
C           -0.63301919493387        1.31983089694014       -0.52496288284104
C           -0.32184750848629        1.93608756964298       -1.89518064054706
C            0.47277234551857        1.79607761195673        0.44325091858879
N            1.75260722052466        1.26930368976792        0.16324302235339
C            2.50755147749891        0.36038044875190        0.18763804521171
O            3.41577411471547       -0.36776179684919        0.20908165036974
C           -0.69148013670507       -0.20502431392121       -0.69623160676059
N           -3.77470534487440        1.61727560742157        1.58850276276891
C           -4.91418454020074        1.75816348114317        1.28752823540380
O           -6.04392788593337        2.00145925336441        1.18114935210021
H           -2.04363176672927       -3.06661906291091        0.64769685828487
H           -2.25788043034961       -2.39482912916053       -0.96669049779607
H           -0.65701894957965       -2.90550470836502       -0.43105574190066
H           -0.22478878384602       -0.28911379413366        2.19987376205608
H            0.61723012872277       -1.54051597231868        1.29185658879776
H           -0.75519364599861       -1.95586463091736        2.31571522876978
H           -3.37048695676561       -0.53091445214247        0.07539808154151
H           -3.02252099585042       -0.93011847758822        1.75831714571030
H           -1.85906807826577        1.24060327052944        2.04530905749129
H           -2.72033567844336        1.73248109212037       -0.84123108336009
H           -1.91953822854926        2.90801613171298        0.20210993608086
H           -0.30792141527797        3.02291453264396       -1.83607068146769
H            0.65195893557882        1.59017003459121       -2.23248664621437
H           -1.06858105292038        1.64609423487865       -2.63087539935229
H            0.21297132724901        1.57130148883617        1.48039250507242
H            0.56703455426923        2.88328535346007        0.35218271075868
H           -1.29620013921195       -0.39254251766565       -1.58710302929640
H            0.31237635863347       -0.57217599043225       -0.91090887957002
O            2.11676578890047       -0.92376656020753       -2.15728576034587
C            1.54654088600936       -1.15676230947370       -3.42419114752436
C            2.59193400735500       -1.50788835682897       -4.48084127939062
C            2.00890008069574       -1.59158233231099       -5.89055537897450
C            1.76105621219706       -0.21436377045599       -6.50173682498325
O            2.99028285439425        0.46402934542160       -6.59806450997235
C            2.91026201912049        1.69474959511161       -7.27822239647764
C            4.31271022788311        2.28217021756993       -7.36236522498502
C            4.36650387070490        3.56323714242143       -8.18987449537760
C            5.81199753099019        4.00305203220984       -8.39920198863342
O            6.47265305478813        3.03730536624036       -9.18161134384936
C            7.86238536347029        3.24032922947271       -9.26946077206520
C            8.50356873628431        2.10404621981831      -10.06328849721656
C            8.06722652078471        0.71495369536891       -9.59345782475929
C            8.31704538936473        0.46766938141375       -8.10779063252230
O            9.68730641491006        0.65966211120623       -7.81159910675500
C            9.95307126688335        1.02834710193236       -6.48109255415279
C            9.72395236809758       -0.08881245087861       -5.45657901622229
C            9.76067496931698        0.43043892334884       -4.01854402222022
C            8.45597811139899        1.12656198418311       -3.63292470322932
O            7.42515827254160        0.16075005415816       -3.60348974631359
C            6.12682572365266        0.65868781896532       -3.83204488513843
C            5.64526568161172        1.68531886998151       -2.80363454993300
C            4.12659353345034        1.83105565502024       -2.84907569390720
C            3.66534259915028        3.02076061656648       -2.00458226058129
O            4.07486693102228        4.27074261310822       -2.52968644857073
C            3.06849874006414        5.04947344249596       -3.13869153588768
C            2.61797432238183        4.51906394184971       -4.50280189406872
C            1.47354026649798        5.32902892102998       -5.10878837098337
C            1.90424826857857        6.68377444115076       -5.66176365025284
O            2.78128700394921        6.49033040425780       -6.75100633332918
C            2.96602603420739        7.65856955079548       -7.51990697777304
C            4.09437437055123        7.42038583557024       -8.51537621824620
C            4.34784366861786        8.61999231849236       -9.42679216237243
C            4.74732615351756        9.88832264658516       -8.65584795192728
O            3.64625026153113       10.69725025326908       -8.29999015103324
C            3.31032005605471       11.66430221730996       -9.27507108922456
C            2.08090357712820       12.46337717844836       -8.84458416534051
C            0.75854191059698       11.75494785552913       -9.13843654140591
C            0.47891294744018       10.62643094529570       -8.15193028581829
O           -0.05828480448446       11.18434195055240       -6.97265889485497
C           -0.16093608110283       10.25706957721659       -5.91902283136624
C           -0.82713289173746       10.95122320798408       -4.73729910161163
C           -1.02322504036740       10.03839167719304       -3.52755749810644
C            0.30001929176668        9.49974469020193       -2.95802308628685
O            1.31849064324984       10.46030813163711       -2.85248197774242
C            1.13825244826263       11.40824397888325       -1.82144847392413
C            2.37709555669446       12.29280820360257       -1.70592883904163
C            2.52129591911531       13.31943796932400       -2.83000772160816
C            2.90327166952651       12.68875758800747       -4.16558599798844
O            4.15682665582365       12.05965171166851       -4.03076783600905
C            4.56133599682377       11.37183099326958       -5.18998980345893
C            5.77992294363091       10.51418823873578       -4.85563245748319
C            5.42701683556956        9.15914203343647       -4.24386514320864
C            4.62769075436522        9.29613235322619       -2.94311483147992
O            4.46856201303859        8.08202145011226       -2.24071504562767
C            5.61819305064361        7.64385140240801       -1.54570840589476
C            5.19569325725195        6.61928597626082       -0.49552805806097
C            6.33682009836667        6.21996161721160        0.43649034333075
C            7.36649960016014        5.31061345718839       -0.22824719386156
O            8.42017474567736        5.10937692414091        0.69205451771535
C            9.54444893138349        4.44168276363506        0.17405937002986
C            9.37685216956990        2.92482322575960        0.04129775175316
C            9.08220134774136        2.27383884888466        1.38951502225554
C            9.01380665643843        0.75458934896579        1.28747120892405
O            7.95533718760548        0.38200212086197        0.43865981518293
C            7.81079547453604       -1.01365107172602        0.31600181470755
C            6.67771490523226       -1.29596655896979       -0.66159723530722
C            6.42304624131769       -2.79083607173559       -0.84188326710071
C            5.24861783414688       -3.04298767925471       -1.78561378105536
O            3.99363961825574       -2.79791776811683       -1.18528447606681
H            2.68098803142163       -1.68812633707660       -1.93255897727231
H            1.02907074255923       -0.23247740280059       -3.69102704388234
H            0.79882100818134       -1.96277649344588       -3.36066549831235
H            3.37268228971999       -0.74664664843088       -4.47805663132057
H            3.04364226813130       -2.46692490518197       -4.21510576387878
H            1.07111154545880       -2.15039961608157       -5.88101417098177
H            2.71688409239954       -2.11508540113455       -6.53406662964551
H            1.31532823370996       -0.32886277946894       -7.50342776153926
H            1.05472935456998        0.36832222401862       -5.88890965008317
H            2.23206988904643        2.38270515015992       -6.74798714749249
H            2.50380346331840        1.53747857110350       -8.29060370390204
H            4.67158254734253        2.47682349007304       -6.35000491964756
H            4.96625656438641        1.53626787778362       -7.81665477846852
H            3.81568239086373        4.36598503916668       -7.69671491087091
H            3.92039941187967        3.38162941844370       -9.16891632020246
H            6.31641585364658        4.10880183495938       -7.42466759673952
H            5.84957867198343        4.98194480013904       -8.90292336427158
H            8.29754811376573        3.28969582508191       -8.25884617553731
H            8.07480854674028        4.20397335700070       -9.76250092855625
H            8.23361095934639        2.20960202518499      -11.11500506414454
H            9.58594801370096        2.19469897019757       -9.96913294803877
H            8.61358394248242       -0.03133185813229      -10.17148394598919
H            7.00004669928429        0.59246348318315       -9.77865844183524
H            7.70242032928933        1.15350077722376       -7.51057207715636
H            8.01178014796203       -0.55969870048035       -7.85969180508428
H           11.00464442701698        1.33053646940896       -6.47223411917321
H            9.34136841462487        1.90504169507196       -6.21393419156453
H            8.74887585561538       -0.54793214943937       -5.62424970821859
H           10.48547296196320       -0.85654701869862       -5.60034238861806
H            9.89827364601933       -0.40930158267739       -3.33675348380232
H           10.59241336219665        1.12475381758327       -3.88581052751274
H            8.56172981076542        1.59329065164972       -2.64401478550669
H            8.21143723198910        1.91362544336139       -4.35849133765988
H            6.06005859466191        1.08490446748153       -4.84554754498376
H            5.48731788997876       -0.22728131919069       -3.79344288665107
H            6.09642926821762        2.65976745048693       -3.00332560131474
H            5.95475125497905        1.36566899836715       -1.80653049346455
H            3.64874484436374        0.92999942842050       -2.46130763158537
H            3.81104847867517        1.96684714077361       -3.88493557767992
H            4.11331713320311        2.93702094578810       -1.00663565875640
H            2.57671625969265        2.99973700108726       -1.88733032496246
H            3.50577912105162        6.04645141980886       -3.22991893974594
H            2.19583168018850        5.11792030751392       -2.46902975757940
H            3.46393247076124        4.52370640617564       -5.18976283882406
H            2.27848493074436        3.48837021033822       -4.37926110761280
H            1.03712665562361        4.76084790861018       -5.93314246731363
H            0.69736858671825        5.49423256255641       -4.35792977336791
H            2.39724646792016        7.28510744693472       -4.88327668622756
H            1.01115733810023        7.23241707130344       -6.00198977283453
H            2.03381305879452        7.89938307061232       -8.05585476263072
H            3.20985151273741        8.50878527164345       -6.86745512292180
H            3.83866669519826        6.54974846902399       -9.12157041246026
H            5.00148467486231        7.18324367705133       -7.95610645000461
H            5.14475739918250        8.36037226949927      -10.12572874294283
H            3.44773658913450        8.83234602003781      -10.00727395066963
H            5.45830267268614       10.48163684001590       -9.24715059708170
H            5.23488712032972        9.61067367595527       -7.71745245403059
H            3.12162103922961       11.18212822998161      -10.24623194682752
H            4.16643244792286       12.34754777276027       -9.40290751535300
H            2.09966018121357       13.41664148132749       -9.37545575887707
H            2.14944538566145       12.66127432505870       -7.77504733062916
H            0.77091745555825       11.35598697075571      -10.15449401545869
H           -0.06027434931805       12.47137965045180       -9.06046570807366
H           -0.24132276136887        9.90749046753044       -8.57867518664763
H            1.41142824636499       10.09477470022725       -7.92599835331288
H            0.84167314490323        9.89808741416104       -5.64171352332013
H           -0.76025773974242        9.38613499854162       -6.23645613428021
H           -1.79556515856096       11.33214725110688       -5.06654643441578
H           -0.21112976038244       11.80714478222101       -4.46025786287042
H           -1.55131567246001       10.59973618998125       -2.75392928415646
H           -1.64494591568994        9.18312127302879       -3.79904126376382
H            0.70522056327464        8.72948547969538       -3.61925229431871
H            0.10918529395440        9.04009158284828       -1.97511118734159
H            0.97733536722493       10.87670898601197       -0.86919652352069
H            0.25215319250960       12.03108900706024       -2.01470323837787
H            2.32144347051160       12.82021072230505       -0.75158862369293
H            3.26016795561453       11.65590106079737       -1.70354370699671
H            3.30527895679050       14.02656689663786       -2.55322944145971
H            1.58856317896117       13.87294873619488       -2.95742958789922
H            2.95535439106732       13.46845501728779       -4.94488476371269
H            2.15049314674815       11.95077673147353       -4.46930468887631
H            3.74081242190866       10.74688014773876       -5.57181421161250
H            4.81287633981459       12.09756203562820       -5.98101161942237
H            6.39686370981777       11.08104387340193       -4.15597003918040
H            6.36149254247732       10.35230381984516       -5.76559324953363
H            4.85346245845371        8.56269216130248       -4.95715493242812
H            6.35559753730828        8.62186796428314       -4.03620764937744
H            5.12180782225039       10.03848575392703       -2.29896363695166
H            3.61329191722173        9.64188420374696       -3.15287458834551
H            6.10191725214957        8.50374517914341       -1.05578801621193
H            6.34019827483193        7.19590361393005       -2.24229135652574
H            4.38915529025587        7.06328200325989        0.09041197107273
H            4.80364682440544        5.73949040278365       -1.00439005230357
H            6.85257542608377        7.10861165744969        0.80605410244900
H            5.93368684238074        5.69128556857161        1.30137328075252
H            6.89644478415591        4.35871421657827       -0.51100405654882
H            7.76406587054314        5.77897006287744       -1.14132093831987
H            9.81718265927889        4.86778234349012       -0.80475105946760
H           10.35027959646091        4.65588548849059        0.88317706330028
H            8.56083796889122        2.69539890913072       -0.64418141035968
H           10.29882893491161        2.51530942893012       -0.37752608065729
H            9.86250532225010        2.53763481041803        2.10606995150175
H            8.13101219225811        2.65133705787746        1.76477222811734
H            9.96506315690624        0.35894648296321        0.89228253662004
H            8.86120407645502        0.31886537283189        2.28898575236948
H            7.59348917711289       -1.45593426982561        1.30324050229623
H            8.75118646231350       -1.45915283879954       -0.04898323519108
H            5.78427958370602       -0.79208439995997       -0.28874620643364
H            6.94294684262914       -0.85873814918100       -1.62465898007809
H            6.21091409247694       -3.26150873707448        0.12160917085042
H            7.31416901089176       -3.26308601900037       -1.25900557968022
H            5.36474983973357       -2.41456178383563       -2.68045172633034
H            5.22774885114593       -4.09086743512493       -2.09973388610368
H            4.08829568664504       -2.04578384791626       -0.58029518800892
