383
 energy: -507.646979651674 gnorm: 0.000222180555 xtb: 6.7.1 (edcfbbe)
O            3.41145670477431       -1.77539411141767        3.82388173480610
C            3.19202930370921       -1.46339753879560        2.72985279069363
N            2.97400591598052       -1.35337427203558        1.56493323803464
C            2.69170709237945       -0.50240811524393        0.52138903389485
C            2.46246321764679       -1.05268304033879       -0.73426633591547
C            2.14583615014284       -0.22795149979188       -1.79573412670699
C            2.05362174579174        1.14852091981226       -1.63039732813501
C            1.58409456977280        2.03240070527645       -2.75579432257545
C            0.09597826570319        2.18833480544054       -2.56072103702762
C           -0.77267645213278        1.19222844489304       -2.99009411191412
C           -2.11377126990956        1.22729806529549       -2.66252170299987
C           -2.59606532334508        2.26901400851237       -1.87654773093831
N           -3.90261033681549        2.22570755478209       -1.46233612068793
C           -4.61614240607449        2.46306840388676       -0.53973876546702
O           -5.48814012204527        2.57884893135514        0.21367363623492
C           -1.75420226082462        3.31243286759554       -1.50162099697133
C           -0.41665788675834        3.26023959419918       -1.84046502292684
C            2.30019282824433        1.68593747842713       -0.37194928582678
C            2.62033152011456        0.87690001362589        0.69947911251866
H            2.52747907509012       -2.12174004137883       -0.86414527285193
H            1.96474164118492       -0.66337530775210       -2.76721553199913
H            2.07832218719934        3.00354204574834       -2.71042771989337
H            1.79893752864247        1.56738804157634       -3.71863448880779
H           -0.39033182986913        0.36458573268477       -3.57022874466048
H           -2.78524817323408        0.43851882080354       -2.96511368788888
H           -2.15979949796190        4.12835284096513       -0.92446511192911
H            0.24271830109542        4.05738654669501       -1.52632390868254
H            2.23563094351219        2.75385040009817       -0.22571513398902
H            2.81210344974429        1.30153295444727        1.67436945282428
O          -13.50806399040748        3.06978021028702      -10.56535606775660
C          -13.90378987872670        3.74676329360557      -11.72654693619764
C          -15.42033599805019        3.94894147536816      -11.84873679589641
C          -15.98104124250421        5.12185005102684      -11.03820333776191
C          -16.05640879712585        4.87474054855109       -9.52726869243663
O          -14.80110430424948        4.82909966190776       -8.87960303183491
C          -14.23234934460932        6.08337604806918       -8.56192694167539
C          -12.80876714000563        5.85382878562951       -8.06204570345989
C          -12.79303198934366        4.91718690070094       -6.85778519456936
C          -11.36723853787074        4.60022963726430       -6.38342875677596
O          -11.23636661600839        3.31587001378549       -5.82749299359704
C          -11.87084767681503        3.14654124621155       -4.57763427387511
C          -11.69926301649213        1.70012061859601       -4.12796043177640
C          -12.45000577665922        1.44082104245659       -2.82455487683695
C          -12.31721161147266       -0.00130158274026       -2.34688490079855
O          -13.05359851998602       -0.85902630970487       -3.18921157638872
C          -13.03862236887671       -2.19256038207866       -2.73589291786913
C          -13.81467880146799       -3.08057137048227       -3.70108855279440
C          -13.85578776266431       -4.52302309171594       -3.20309330628358
C          -14.44808170034428       -5.47443829315419       -4.23619449283046
O          -15.79348964691293       -5.13693230175182       -4.48693943019609
C          -16.44478793070205       -6.06235258491933       -5.32692178561281
C          -17.82092455400884       -5.53992549874729       -5.73309521841081
C          -17.77111734276532       -4.49596900323878       -6.84739935939161
C          -17.16309131789358       -3.17991993268598       -6.37893333683525
O          -17.04134366314578       -2.30617779719291       -7.48051637150391
C          -16.37405943234464       -1.11098018259696       -7.14213228777860
C          -16.04180856309441       -0.34821348785867       -8.41941369184481
C          -15.33414292154376        0.98032042993333       -8.15354515075830
C          -14.01116729159439        0.79658311299956       -7.39593845366678
O          -13.18357202383364       -0.18385376929894       -7.98143240359313
C          -12.33619552532071        0.28071746440716       -9.01694386179541
C          -11.06912702956032        0.93738414759350       -8.46898933272860
C          -10.14804487209959        1.41945871989987       -9.58549938329857
C           -9.04025381853663        2.29804943814962       -9.01243451444292
O           -8.34493401844922        1.58801927252127       -8.01554911617087
C           -7.67276023422002        2.41536883851911       -7.09465052104267
C           -7.07446570436393        1.54858957069679       -5.99154088234459
C           -6.26493754545940        2.35953632247312       -4.98165725532355
C           -7.11122598445590        3.40954361604100       -4.26753287111354
O           -6.37197385421261        3.95765449484469       -3.19866383465045
C           -7.02248284068126        5.04642688776803       -2.59092994344429
C           -6.15838190229803        5.60945388329558       -1.46893243984063
C           -4.80133487882356        6.08440120314999       -1.98261758782347
C           -3.93379969671231        6.62705356073400       -0.85194880084334
O           -3.65383382094372        5.58258231228335        0.04728011582551
C           -2.98919036125956        5.98020273719546        1.22265963747766
C           -3.02691477433962        4.81332797915088        2.20509136808381
C           -4.45076961945716        4.56702766932975        2.69446910756439
C           -4.59641512441673        3.22624009749609        3.40326785324916
O           -5.97719325864403        2.99188799366079        3.59523313014241
C           -6.30744723944547        1.69710223795804        4.03038529053363
C           -5.99332812521786        0.58317589747399        3.01582895819521
C           -7.01936780417868       -0.54876593221248        3.08783040624132
C           -8.30358213689553       -0.22272545828902        2.32024421538685
O           -8.23663342724682       -0.83647157378335        1.04653400431697
C           -9.24198321440097       -0.43417435042499        0.13984072875603
C           -8.87885595153236        0.81663789660742       -0.66702001228267
C           -7.56456109734700        0.67078896704036       -1.43521111781291
C           -7.53551184341282       -0.50367496080235       -2.40854053435121
O           -8.62314681103317       -0.44010798602071       -3.30803119109933
C           -8.74424493275561       -1.61320685735224       -4.07957036622441
C           -9.88599799680049       -1.44739344027755       -5.07621997865260
C          -10.36592848454823       -2.78576418388951       -5.62756277775930
C          -11.46153281818060       -2.58302717641069       -6.67002440336762
O          -12.30253295901175       -3.72449229757368       -6.69656400690195
C          -13.25161083806982       -3.69691313898704       -7.74069948406851
C          -12.70240182554288       -4.28055894198615       -9.04732369204872
C          -12.27026923319933       -5.72932660835619       -8.84451246359390
C          -11.66103374631473       -6.33848202321896      -10.10040977925582
O          -11.29345679060631       -7.67345098695182       -9.81117720526704
C          -10.90658258666111       -8.44543850448712      -10.92317098695291
C          -12.06051271968871       -8.79758455398918      -11.87411336235597
C          -13.24238361725590       -9.38052314859655      -11.10338708759840
C          -14.53013271026475       -9.37378251902030      -11.93287651632979
O          -15.65433134491628       -9.87623697853803      -11.25318910993933
C          -16.10699007347246       -9.05032663883994      -10.19541425808967
C          -17.42258060600444       -9.60736740863282       -9.66158887203537
C          -17.83718229427009       -8.94740642763714       -8.34570599129969
C          -16.99932665302516       -9.39662488524595       -7.15030328230077
O          -15.71835821973363       -8.81119827942369       -7.20305229233117
C          -14.83819378555212       -9.29275020110168       -6.21541628252355
C          -13.46300934773763       -8.67400333972878       -6.43893163357618
C          -12.48851091090101       -9.06512120304755       -5.33517152185135
C          -11.07247880895913       -8.59056179685761       -5.63942929253353
O          -10.26609923479640       -8.87465428940892       -4.51864198279312
C           -8.89082453133141       -8.67314654788877       -4.74166640671986
C           -8.12955635749139       -8.62901051995915       -3.41812061944419
C           -8.03097405346590       -9.96813285172554       -2.68885950032845
C           -9.37466865330828      -10.41494737024966       -2.12199405298060
O           -9.82894580671310       -9.45081644524210       -1.19988426789431
C          -11.18330924406541       -9.61331654200138       -0.85396127690041
C          -11.63867460513493       -8.42768373440961       -0.01122083752612
C          -11.63864107978317       -7.12881202488018       -0.81294273010488
C          -12.06572492419972       -5.93821551239673        0.05172044816784
O          -11.28595636376440       -5.74571823745015        1.20751389351819
C          -10.00061059630062       -5.20748647522991        0.97705111242011
C           -9.38203060007304       -4.88447202241422        2.33488785673040
C           -8.13377531877933       -4.01178272521638        2.24094918376829
C           -6.91287036003019       -4.75501805912705        1.68785222862872
O           -5.77673096749846       -3.92955946842718        1.56831137108724
C           -5.74001274786730       -3.15397651053443        0.38332805628679
C           -4.42808797381649       -2.37598997446622        0.37238591534282
C           -4.25030482715542       -1.51398697155794       -0.87340259309546
C           -4.01277449866654       -2.33527956055429       -2.13637201084236
O           -3.89063423552152       -1.44517328861589       -3.22453142028556
C           -3.62387432497716       -2.09490556913583       -4.44888773738072
C           -3.78407567492179       -1.08630718915569       -5.57948465263298
C           -3.40305231731899       -1.67608782354265       -6.93385755327809
C           -3.85674445089776       -0.75000337620364       -8.06848755446356
O           -5.25592423725861       -0.60267717428858       -8.12063304417243
C           -5.93755500022202       -1.62203357020715       -8.82174866733125
C           -7.41691836559950       -1.54924612804472       -8.45526098889459
C           -8.31126984674461       -2.36202852658402       -9.38864150896872
C           -8.12614553024081       -3.87044920719712       -9.23022611500064
O           -8.44739812079829       -4.22169942313456       -7.90405191947945
C           -8.42538927763236       -5.59687480865986       -7.61779188681790
C           -7.01470602109493       -6.19225999080204       -7.50498532566839
C           -6.09029651497973       -5.36989033574662       -6.60764702430654
C           -6.57445845231188       -5.26493584526516       -5.15535165472387
O           -5.53856025244602       -4.86512960417227       -4.28152638228131
C           -4.67475601657101       -5.90042940354218       -3.84785782099152
C           -4.98577183377478       -6.33792954350961       -2.41352012805801
C           -4.21896298662011       -7.60125023970292       -2.03170586291879
C           -4.27982912372493       -7.85371798452326       -0.52813685190100
O           -3.58199021209446       -6.81945085647417        0.11696798706015
C           -3.52293862581549       -6.95205917691935        1.51717506379628
C           -2.84975967830013       -5.71242289179615        2.09525715299963
C           -1.40453654946253       -5.58707589922224        1.61662609402347
C           -0.79897672855208       -4.22402729394463        1.93941599162682
O           -1.29368923997232       -3.28757304853468        1.00507315734502
C           -0.74099715667686       -1.99666569637763        1.09047324102252
C           -1.30460360252602       -1.16231762197662        2.24697418661829
C           -0.85299692481899        0.29860913772610        2.20735839465148
C           -1.42015948053399        1.11151950530560        1.03894003081555
O           -2.81367355926280        1.30647440195277        1.10774234518942
H          -13.82808814413431        3.58460763219306       -9.80250976837474
H          -13.55736994055112        3.12609348942747      -12.55805189851470
H          -13.39812297002474        4.72318237722478      -11.79767989865321
H          -15.64705813081288        4.12754832169370      -12.90173376359853
H          -15.91803267502594        3.02413476313690      -11.54988520667173
H          -15.38364579345360        6.01547201548737      -11.23503784592207
H          -16.99768894740244        5.32491378997987      -11.38064233001291
H          -16.51048815955645        3.89768861287248       -9.33752080666810
H          -16.68151282227366        5.64744128838102       -9.05945054541403
H          -14.21566591000468        6.73969973224396       -9.44280322217024
H          -14.84009755475270        6.57187133103880       -7.78486873914387
H          -12.36695710654313        6.81780683172088       -7.80351853189820
H          -12.22197018378823        5.41028581486717       -8.86873784946818
H          -13.27096046762653        3.97988029515352       -7.14754139269474
H          -13.37628037207963        5.35818634458060       -6.04711396323551
H          -10.68996951059448        4.59930973676332       -7.24273731644333
H          -11.02060337356023        5.36446542049531       -5.67022143941079
H          -11.42743351537080        3.83689300702271       -3.84079212807819
H          -12.94233124399093        3.38066411994399       -4.65796593101019
H          -10.63727538385991        1.48469997359757       -4.00161584430124
H          -12.08591142588129        1.04619298794031       -4.90921756046372
H          -13.51084124128528        1.65776629348523       -2.96336863845040
H          -12.06590899516817        2.09817341774762       -2.04105134225512
H          -12.70076389124343       -0.08364087430517       -1.31545763550761
H          -11.25875451498784       -0.30219849653837       -2.33743555567274
H          -13.48584619806983       -2.24573452869653       -1.72780497680666
H          -11.99684465510127       -2.54476661021920       -2.65385215228534
H          -13.33563311097437       -3.04843439797121       -4.67845288457224
H          -14.83002745475092       -2.69816028953575       -3.80288503443092
H          -14.44451173099244       -4.58312492615497       -2.28576916026097
H          -12.84169561250269       -4.86402989411681       -2.98348534966219
H          -14.39206135047353       -6.50986839391411       -3.85953077052194
H          -13.86294985659794       -5.41692448433947       -5.16665003976830
H          -16.55848479654945       -7.01727751813663       -4.78611280275225
H          -15.83989209882565       -6.26047318065087       -6.22415181528673
H          -18.41567560855348       -6.38980947237562       -6.07321073793534
H          -18.30016101494472       -5.11392260170883       -4.85042649815034
H          -18.78041481471595       -4.30458122336927       -7.21659095980768
H          -17.17826550907483       -4.87221638719162       -7.68317522055754
H          -17.80129208656745       -2.72501540550903       -5.60389860107365
H          -16.17581332721258       -3.36054763191094       -5.93496951059847
H          -15.45113569284315       -1.35348391980497       -6.59780060503474
H          -17.00988203403868       -0.49815837206276       -6.48058721778976
H          -16.96680933922702       -0.17245172188995       -8.97150421191092
H          -15.39856633503323       -0.97999013507413       -9.03293023283181
H          -15.12759307013609        1.46199991434423       -9.11121380765290
H          -15.97489596770844        1.64272498141179       -7.56766373567224
H          -13.48917646154610        1.75801982048711       -7.33561816029696
H          -14.20599901940628        0.45186074702715       -6.37634423874053
H          -12.86532102744128        0.98174800993428       -9.67207649810272
H          -12.07654687346277       -0.61044276590890       -9.59712696121254
H          -11.33978371185651        1.78594800713643       -7.83884845295134
H          -10.53514379003356        0.22596267517715       -7.83915038317618
H           -9.70571696189086        0.56462698150503      -10.09874717959635
H          -10.71872019228449        2.00319786733089      -10.31034614858138
H           -9.49154791881041        3.20074532704899       -8.57398072074972
H           -8.34474100752338        2.62008408698825       -9.80569618656742
H           -8.39111331148588        3.13315479411245       -6.67155304657788
H           -6.87654767215848        2.98196123321769       -7.60580863010441
H           -7.88582771402888        1.03100625503289       -5.47868487497836
H           -6.43460479251589        0.80399983963143       -6.46701769357797
H           -5.42908950203839        2.85701505918616       -5.47696389674174
H           -5.85081496481744        1.69240753033982       -4.22479643791529
H           -7.39272760292420        4.21597686419763       -4.96325660072732
H           -8.04051597103395        2.95197323360489       -3.89222097203506
H           -7.99655735540556        4.72446727994456       -2.18613746917079
H           -7.21721161508094        5.82911510371654       -3.34588160172832
H           -6.69462350550569        6.43895808013363       -1.00229557862624
H           -5.99888171387969        4.83513674153461       -0.72147323757607
H           -4.93525017230508        6.87034768394097       -2.72898714757723
H           -4.29520780963614        5.24053662663261       -2.45067001212058
H           -2.99435052045157        7.04145731339083       -1.25584363326005
H           -4.46060639593540        7.44096572307939       -0.32685417306621
H           -3.48731898789333        6.86026365481962        1.65910813709418
H           -1.94819397957748        6.26427013684965        0.99101626521994
H           -2.35951963031978        5.02302803511195        3.04296386094178
H           -2.67267787284349        3.91978789379594        1.68954349105032
H           -4.77412314531319        5.37170673980502        3.35713960187930
H           -5.11741893186229        4.54635413528638        1.83304784176832
H           -4.07728032094920        3.22886522805651        4.37687851552561
H           -4.15315418346095        2.44545338590794        2.77531461474923
H           -7.38581344969295        1.74211533112776        4.20701480849231
H           -5.81080219267008        1.47929038199774        4.99043988831620
H           -5.99842959982234        1.01644328893433        2.01483654461621
H           -4.99601674983166        0.18336435827249        3.21017807695825
H           -6.60064850716896       -1.45602210273548        2.65280356763128
H           -7.25548426935251       -0.75739800613140        4.13289143622356
H           -9.18744644302741       -0.61028705742249        2.85333836371442
H           -8.41803336247371        0.86296048726006        2.21761464125696
H          -10.18894766905864       -0.27055549938298        0.67463928528351
H           -9.38275132586831       -1.27925768986186       -0.53986767693727
H           -9.69153105791197        1.01729170383125       -1.36469670066344
H           -8.78475273270421        1.67045298422411        0.00709059757762
H           -6.75613527506023        0.52586128054531       -0.71858875627478
H           -7.36955313884346        1.59452382481288       -1.97894137658644
H           -6.58819605824773       -0.49284320439833       -2.96981743814890
H           -7.57612369014678       -1.45305882730409       -1.85202519299443
H           -8.94600861767086       -2.46978469500050       -3.41135053066507
H           -7.79669683576740       -1.81973671514793       -4.60105314050000
H          -10.71424321968780       -0.95387221588307       -4.56936688900211
H           -9.55995197814373       -0.79997555753298       -5.89142885211122
H          -10.77678946776700       -3.39443964867597       -4.81952789287802
H           -9.53681050808150       -3.32951969158577       -6.07952587319788
H          -11.01123001505142       -2.41888374270619       -7.65533398213485
H          -12.06621329615338       -1.69833777916062       -6.42717339277516
H          -14.09525564915578       -4.30593690924846       -7.40021398395407
H          -13.60022479027016       -2.66997497803829       -7.90355587298377
H          -11.84703496966498       -3.68815816137811       -9.37829408431723
H          -13.47715103739662       -4.21514839926171       -9.81340495796198
H          -11.54279301441928       -5.77372046615936       -8.03347406690430
H          -13.13153496038749       -6.33451941778929       -8.55535618283366
H          -12.39472336609166       -6.30143057748993      -10.91606161386998
H          -10.77307121563777       -5.76891094343795      -10.42212588252512
H          -10.49761784847722       -9.36231825501464      -10.48984420232007
H          -10.10864272573180       -7.93477137611155      -11.48498147067874
H          -11.69219010418664       -9.50537801750281      -12.61775185127045
H          -12.38242882936062       -7.90027596001235      -12.40741305598506
H          -13.02218664889972      -10.40232565640285      -10.78992699361874
H          -13.38945495965207       -8.77891472484153      -10.20508392870227
H          -14.73353097262389       -8.34694614597407      -12.28038605190560
H          -14.41445331569527      -10.01905823673685      -12.80866118306064
H          -16.25242381923849       -8.02195695597912      -10.56234397485359
H          -15.37576393325368       -9.02308860903664       -9.38166103399423
H          -17.30315555730353      -10.68243545556190       -9.51839390869658
H          -18.20329218860057       -9.45901341300864      -10.40941987007481
H          -18.87779009189493       -9.19962923876714       -8.13462766096515
H          -17.75713933347253       -7.86324953137716       -8.43504591933427
H          -16.90793567675192      -10.49446924890051       -7.14898075907219
H          -17.49808652983388       -9.10069532416878       -6.21226898140091
H          -15.21623187472621       -9.03284750746128       -5.21309741661756
H          -14.77493835268846      -10.39160102078574       -6.27259781416960
H          -13.56817679089166       -7.58927975138891       -6.47014521076440
H          -13.07917324033457       -8.99912302882524       -7.40739580683982
H          -12.79970580780085       -8.62714170164577       -4.38511004069096
H          -12.47469178075256      -10.15018766541296       -5.21278852586083
H          -10.68468410981004       -9.10343565151964       -6.53258939266017
H          -11.06755024175962       -7.50861151826427       -5.84433610690066
H           -8.74768347282262       -7.71622323833413       -5.26887124811349
H           -8.49405335661245       -9.47483192954233       -5.38801307689602
H           -8.62697077975047       -7.91771184130707       -2.75903687188652
H           -7.11962222786572       -8.27104739874587       -3.62851192311819
H           -7.32464155152008       -9.86137378323740       -1.86313655317065
H           -7.66014167068326      -10.74114978248356       -3.36464227434918
H          -10.10146139716282      -10.51803288477332       -2.93741401257750
H           -9.26839110678916      -11.39315283052902       -1.62291528184364
H          -11.31666378157979      -10.55200338955762       -0.29010388500635
H          -11.79229134295534       -9.67898525734893       -1.77005332114944
H          -12.64293144267122       -8.62919206023931        0.36623263401741
H          -10.96867683269888       -8.31886339191822        0.84205099415311
H          -10.63987415550692       -6.96499239343200       -1.21754587140831
H          -12.33103513804526       -7.20586893234831       -1.65369222432684
H          -12.06679887362208       -5.02066474051840       -0.55814584435307
H          -13.07935465056384       -6.10760561307166        0.42682561275927
H           -9.37492649111934       -5.92149394702512        0.42504584639572
H          -10.08730020862897       -4.28783705535333        0.37546603320651
H           -9.15493863517561       -5.81755793557699        2.85320207110176
H          -10.14214304907461       -4.36083833498167        2.91739264137564
H           -8.34052494034787       -3.14230235762077        1.61587413935203
H           -7.87725390770229       -3.64806042294453        3.23777119225482
H           -7.14661467297008       -5.20928155920573        0.71489758448244
H           -6.62399891850496       -5.55069972593030        2.38224238841756
H           -5.80589047939358       -3.82305766582083       -0.48660041229911
H           -6.58392090264483       -2.45235881771424        0.34912285827113
H           -3.59225747283177       -3.07179922768504        0.45902365295794
H           -4.43068098620676       -1.73823432649783        1.25918206997218
H           -5.12592712472097       -0.88390486039481       -1.02681593210688
H           -3.38788138018513       -0.85670791140964       -0.74646194483338
H           -3.09248047194478       -2.93083268244947       -2.02722524758842
H           -4.84508246298243       -3.02530983178205       -2.32912350845688
H           -2.59772438065366       -2.50168738864922       -4.43651043883116
H           -4.32105484694882       -2.93284754025947       -4.58399530033550
H           -3.16882368944995       -0.20997020824706       -5.36875446588700
H           -4.82440438115275       -0.76103555501234       -5.61283477030013
H           -3.87788732294543       -2.65299382977656       -7.04818814599085
H           -2.32308846185902       -1.81964339489304       -7.00112754917347
H           -3.47301903148951       -1.11210730975452       -9.03377243132996
H           -3.46356246956312        0.25577188683467       -7.89318002136358
H           -5.80323637890412       -1.47107505702197       -9.90701176907625
H           -5.52019533076045       -2.60600410094432       -8.56831398468182
H           -7.71361388450681       -0.50006534797443       -8.48227097696771
H           -7.55209478684727       -1.90676158625183       -7.43486832124342
H           -9.35054474000366       -2.12157605290123       -9.16161015339462
H           -8.11526249402108       -2.09480017428532      -10.42932798580520
H           -7.09193226968883       -4.15219826983475       -9.47350383668833
H           -8.79125164627965       -4.40683571845439       -9.92781185387796
H           -8.99522448945472       -6.15875468383807       -8.37332777274507
H           -8.94324903211809       -5.68829809743303       -6.65913501468893
H           -7.10842394912406       -7.20931789429242       -7.11784771864316
H           -6.56732825854548       -6.25883011371809       -8.49950721260846
H           -5.09811676326324       -5.82950630382084       -6.61304400935267
H           -5.99339405726729       -4.36152364726340       -7.01143061357397
H           -6.99787537374328       -6.22328335650396       -4.82775395903563
H           -7.34469462028852       -4.49492347455420       -5.07068337744756
H           -3.65313613567124       -5.50809620176611       -3.89691612220436
H           -4.74188082782261       -6.76385898321081       -4.52135367508454
H           -4.70308509171614       -5.53898358974582       -1.72822374464505
H           -6.05992552206882       -6.51003109020882       -2.31441702924428
H           -3.17033335391421       -7.48272730915126       -2.30971576845691
H           -4.62120367275987       -8.46909201225924       -2.55848985572310
H           -5.32701954668120       -7.88124242182132       -0.18431417284018
H           -3.82114296186251       -8.82793392280189       -0.28896985379049
H           -4.53971675661316       -7.05040522782444        1.92795591697298
H           -2.95972165095151       -7.86308087857438        1.78325410819832
H           -2.88347481150732       -5.76813465960499        3.18480124086526
H           -3.42108626317026       -4.84157564131370        1.77678350217461
H           -1.38613315655400       -5.71703743604997        0.53474017891785
H           -0.79331740240111       -6.36736357043846        2.07439756417802
H            0.29993072745979       -4.26610709417493        1.86445251704982
H           -1.05862700797834       -3.92975972874146        2.96608684206978
H           -0.98470632015092       -1.52758497973968        0.13354668894247
H            0.35415848156186       -2.05574027883514        1.17880670800641
H           -2.39414271884676       -1.22764260212740        2.22268191225616
H           -0.97384156602729       -1.59711233853297        3.19258931722123
H            0.23607317570533        0.33835036963226        2.14409139709593
H           -1.15868560699729        0.78504643229664        3.13640507629945
H           -0.98656223620633        2.11439721244852        1.05930221639212
H           -1.14184444970616        0.64990672446593        0.08261527162540
H           -3.24894285645217        0.44671594974785        1.05771192051267
