35
 energy: -58.148665996853 gnorm: 0.000206411622 xtb: 6.7.1 (edcfbbe)
C           -2.32948089936909       -2.40170210886464        0.86087047253618
C           -1.05804786349409       -1.74212719592693        0.42781154404831
C           -1.02456536493268       -0.36600701680221        0.15703567731746
C            0.14295728758942        0.26245420306288       -0.25181600721056
C            1.30501307387921       -0.48677992719377       -0.39025408068841
C            1.29470460653165       -1.85187169930836       -0.12297208542993
C            0.11960622984652       -2.45951998488744        0.27838599820748
N            2.48860786837661        0.08271198369755       -0.78789777534227
C            3.08852068299650        1.04530200693405       -1.13882549135049
O            3.89281974068614        1.80862101225717       -1.49043952213740
N           -2.14825817161587        0.41291657157180        0.28732697731396
C           -3.30268435397992        0.43944019369913        0.57783768335202
O           -4.41289065279275        0.67004935910719        0.81823012042657
H           -2.69372436334382       -1.96188462692179        1.79017001948727
H           -2.17601832969305       -3.46591248992029        1.01745244448965
H           -3.10647645236130       -2.26902121695380        0.10699168375173
H            0.15170683294578        1.31930041734059       -0.46570513855571
H            2.20203617723412       -2.42432995942707       -0.23322344471780
H            0.11571811732972       -3.52038738094005        0.48147470199494
O            2.73856159363887        3.64292084335369       -3.39060152312277
C            2.83242199675144        5.04960732503651       -3.34601712050575
C            3.06522011180048        5.61867191360462       -1.94453335558315
C            1.89939937178248        5.42636424111278       -0.96670970681790
C            1.83433992204666        4.03498607153263       -0.32974771831618
O            1.27568917743164        3.04738398410989       -1.15947293596769
H            3.53778330775336        3.25659293261447       -3.00240251807173
H            3.64311654639011        5.38647384711768       -4.00705608313466
H            1.88551142848965        5.41630073105589       -3.75114523595457
H            3.25065054544532        6.68833634774581       -2.06072140265937
H            3.96882108229141        5.16946431585235       -1.52205338797970
H            2.00813713326288        6.15251590794284       -0.15880817099104
H            0.95302604541515        5.62731642554058       -1.47314564135573
H            1.19811276434517        4.06936044486557        0.56018311385169
H            2.84617973457729        3.73645466681394       -0.01120408286821
H            1.63870022866013        3.17338463358566       -2.05935602617447
