46
 energy: -77.082427465390 gnorm: 0.000169923092 xtb: 6.7.1 (edcfbbe)
O            6.29187199629201        1.09308148433585       -1.96985535509414
C            5.38036460860468        0.80032220124342       -1.32309630725573
N            4.54657663343152        0.64453610921660       -0.48254148141892
C            3.43123921639019       -0.07230383291382       -0.13026778871106
C            2.69058188824594        0.35355345923781        0.96843084936894
C            1.57862593587475       -0.36057105445658        1.36787495818449
C            1.18538406168523       -1.51025668243256        0.69186023346063
C           -0.04945584278960       -2.26249288042302        1.12135294059713
C           -1.26567147734583       -1.56298469676170        0.57230156179009
C           -1.68638612219425       -1.80145346984696       -0.73100472840183
C           -2.76567762789586       -1.12534444226411       -1.26398073743926
C           -3.44325790760765       -0.18649177359547       -0.49239363217541
N           -4.50755499235581        0.47243813683253       -1.05559633731891
C           -5.36544887556652        1.28484164681878       -0.90132271936984
O           -6.25678184516749        2.02099209867558       -0.94856429960588
C           -3.03465701611586        0.05934532701687        0.81589952489321
C           -1.95439723738066       -0.62727350276074        1.33455442634891
C            1.92611102141353       -1.92102523782160       -0.40970611877020
C            3.04026400545582       -1.21575303554445       -0.82340030418416
H            2.99864506245214        1.23941950436157        1.50161848906642
H            1.00922712549301       -0.02300007960189        2.22120984635462
H           -0.00740224324121       -3.28528554607504        0.74398008757129
H           -0.10100324824925       -2.29231823424285        2.21080222514420
H           -1.16370957642362       -2.52795791990397       -1.33577445361288
H           -3.09463066775284       -1.31585605747143       -2.27373499716853
H           -3.56843499642956        0.78257293053930        1.41462964073169
H           -1.64758398694327       -0.43541276123581        2.35238854564076
H            1.63409548984698       -2.81068670260550       -0.94962129511771
H            3.61564947998970       -1.54048698193889       -1.67765913759347
C           -0.49871597830336        2.60957738972074       -0.27655122046438
C           -0.27328765293496        1.48517816329421       -1.28364065825260
O            0.76752998299221        1.87615968076714       -2.15243279949016
C            1.10348417488841        0.88219562064725       -3.09677284172976
C            2.33280604784168        1.37541549126035       -3.85949804646959
O            3.41112419372831        1.60009845800263       -2.98947346498761
O           -1.04078589752137        3.75525323423533       -0.87461721597074
H            0.45870150087763        2.83964320370584        0.21218834753791
H           -1.21631070965260        2.28194465004415        0.47791712157479
H           -1.19500788062256        1.30446829383898       -1.85537661002631
H           -0.00113472802118        0.56048073777800       -0.75727569031464
H            1.33571573053804       -0.05744548322653       -2.57482346856916
H            0.26641381176223        0.70620351829695       -3.78755021561715
H            2.07537844045725        2.29718082730734       -4.39909037155186
H            2.65734268945597        0.62008842152135       -4.57727668059364
H            3.08783805602202        2.18401800438562       -2.29135118021943
H           -0.48129674567125        3.98414752999015       -1.62663284735071
