388
 energy: -505.356100784722 gnorm: 0.000474219642 xtb: 6.7.1 (edcfbbe)
C           -0.48956774150311       -1.83993407168189        3.54882905033606
C           -1.13850769867379       -0.51422949736630        3.12495176274603
C           -1.77374434913771        0.09780839826678        4.37614717743250
C           -2.19410594536222       -0.82591759996499        2.05497986440633
C           -2.70083554236621        0.41158147566517        1.31071907040227
C           -1.53512460191594        1.18941260725974        0.69683781556545
C           -0.46563770408935        1.59812521765750        1.71414570377136
C            0.74957613755411        2.12572191941450        0.93868225955805
C           -1.01453401188486        2.75972423623702        2.56760298009694
N           -0.14766257604101        3.18366411287774        3.60302147819956
C            0.61765162203373        2.85724447681113        4.44679521264663
O            1.38773929694542        2.75297822673351        5.31307664840261
C           -0.03065098790302        0.37197348019141        2.52938176209133
N           -3.57506818402538       -0.00415954637159        0.26310920810150
C           -3.60205044847135       -0.59334927225636       -0.76179389002996
O           -3.87049389512894       -1.10557650212417       -1.77744103016139
H           -1.23960157375651       -2.51809233781501        3.94974504261695
H           -0.01119481352691       -2.32779686888849        2.70253734070061
H            0.26210459697471       -1.66724347125008        4.31614705379448
H           -2.42164636612271        0.93577971917517        4.14392795590820
H           -1.00402625166411        0.44181194060587        5.06432187035257
H           -2.37115799047791       -0.65404007998822        4.88815680407629
H           -1.75273995215842       -1.49104956097833        1.30804018477380
H           -3.04549772803576       -1.33553865752213        2.50858102926044
H           -3.31109516948089        1.04304807992235        1.96209910039423
H           -1.06775634469595        0.53103979928489       -0.03687774440824
H           -1.90282414373448        2.07335357800556        0.17259765248241
H            0.43666527706051        2.89922439601907        0.24165690253129
H            1.48819507945834        2.54207427999505        1.62065626381609
H            1.22082916670828        1.32734165884218        0.36980272558875
H           -1.97972025255437        2.50373408434933        3.00694478504428
H           -1.16706733416433        3.62614131221842        1.91844029779964
H            0.55277554310959       -0.25885395600430        1.85425683696199
H            0.64327906407561        0.68782454460020        3.32988023768471
O           -6.78192293948501       12.02467235664456        7.28091730918145
C           -6.87311314223018       13.06528607534384        8.21530582607515
C           -7.89595693912953       14.14835289458920        7.84764016882497
C           -9.34995611993032       13.80027445879835        8.18619237987791
C          -10.02220012569814       12.82800905564978        7.21043020803697
O           -9.49191186499708       11.51808438679731        7.21482755490363
C           -9.91207915025209       10.68810214419678        8.28166831618493
C           -9.09300819234273        9.40069853577162        8.23503809522279
C           -9.30583081896819        8.67142811382768        6.91226769573904
C           -8.29465701604901        7.54154310093509        6.69568922306544
O           -8.24220549305145        7.09941538425112        5.35773973041847
C           -9.26848667521785        6.20499440439406        4.98121820506349
C           -9.11936312875969        5.88545026630443        3.49780549502776
C          -10.07440226164338        4.77748950804042        3.06392548975437
C          -10.01525830790589        4.53249802655015        1.55941740255299
O          -10.62867855949965        5.60851577706414        0.88658237119540
C          -10.69544323856396        5.41946691727379       -0.51027530469211
C          -11.23420017300045        6.69658480294698       -1.14173208558973
C          -11.17728509958736        6.67404307177599       -2.66599997109166
C          -11.38829377908593        8.07172205320659       -3.23913592733421
O          -12.65237441029236        8.55724963197241       -2.84592502488170
C          -12.93690708144838        9.82719939624047       -3.38371918999974
C          -14.21581480066268       10.38730642324907       -2.76136874836037
C          -13.96817660477960       11.13077515453374       -1.45004840086125
C          -13.53502420143484       10.20224107397654       -0.32124063524799
O          -13.02656187319602       10.99084521382021        0.73478787548339
C          -12.53686206360222       10.22680876727642        1.81237384118108
C          -11.75899537090198       11.14398680676762        2.75282849519485
C          -10.95950109298538       10.36619188262263        3.79808586290896
C           -9.70003020941411        9.73622641672536        3.19237167800695
O           -8.76694118764721       10.70810027978323        2.75744262983332
C           -7.75812695947536       11.04468911291400        3.69126414030698
C           -6.72478070679695        9.93126599700856        3.86663611341163
C           -5.49697461254877       10.38877603675630        4.65196468377823
C           -4.69902774827915        9.17242545218735        5.11477351521213
O           -4.39274840910370        8.36809492123369        3.99823680544689
C           -4.22151494617133        7.00158282157261        4.28797396835272
C           -4.06505337963418        6.25090229080991        2.96878067258091
C           -4.02085201235963        4.73502082883518        3.14591115052763
C           -5.38952797668535        4.16688629838974        3.50569987058434
O           -5.33889582468206        2.75217047908930        3.52810655592390
C           -6.57520890356151        2.19056381170412        3.90734900568380
C           -6.56980329303992        0.68266692749643        3.68786455170319
C           -5.58506302396015       -0.03492628099569        4.60479827803836
C           -5.64146825903776       -1.54624048791223        4.41258484610898
O           -5.33626666552771       -1.86519521391703        3.07601671361293
C           -5.44882407233082       -3.23849178735062        2.78999610699836
C           -5.34956351428772       -3.45703610358780        1.28371806177843
C           -6.54107428728471       -2.85157793819748        0.54673160262545
C           -6.49265914514296       -3.14967763270623       -0.94753803103900
O           -7.61510998300432       -2.55341731292523       -1.56308762447283
C           -7.63835306583139       -2.65578918247661       -2.97056953054791
C           -6.69550536769344       -1.69809971488585       -3.71043217235873
C           -7.13868341221452       -0.23775457249801       -3.65519132292579
C           -7.17711754021261        0.29967826188311       -2.22677549987160
O           -7.34071731743156        1.70792320206408       -2.27036590487077
C           -7.98348637126437        2.26386828684576       -1.15132786611022
C           -7.23677453303756        2.11181054310804        0.17745264593430
C           -5.78697372113813        2.60070491222795        0.15795759569067
C           -5.59837033883002        3.97755891367654       -0.46845635371239
O           -6.41927845639531        4.95095947672242        0.14654626963326
C           -6.38404667130820        6.16715323210027       -0.56378291480185
C           -7.30846475763280        7.19843744558300        0.07504288407729
C           -7.61524799421442        8.31874741985026       -0.91525382370215
C           -8.55922381519529        9.36208100301992       -0.33011472709463
O           -9.04185964169735       10.17059856300572       -1.38716865726583
C           -9.79033363678782       11.29450763107634       -0.97181265265705
C           -8.95414362776106       12.36272934222128       -0.25950770976968
C           -7.73440818417912       12.71546867127386       -1.10365841289199
C           -6.84750364841991       13.76520354708041       -0.44575153466968
O           -5.85343707821649       14.14231979384966       -1.38446403756650
C           -5.16558528016936       15.33799449252175       -1.10663670663297
C           -6.05057234808809       16.59603824278956       -1.14099911193995
C           -6.98612455133822       16.58419218524900       -2.35137470703434
C           -8.28109855541128       17.36623699492410       -2.10250892108118
O           -9.29624948755304       17.08301282532708       -3.03339356930165
C           -9.87914016123996       15.79253029401286       -2.92052414505497
C          -11.40105288129915       15.92007502578075       -2.97464316803071
C          -12.11546999723243       14.57422392706022       -2.86422860018183
C          -11.90195248195151       13.66693818528360       -4.07365740400904
O          -10.68438007750345       12.96573701744658       -3.94546124849859
C          -10.39051517293145       12.17409450715747       -5.07296231102236
C           -9.10709147556745       11.38728934428022       -4.83065637672495
C           -8.83386224888661       10.43769111440359       -5.99211560784334
C           -7.52285168761057        9.68380222048800       -5.81277098482316
O           -7.30002849362627        8.89175728232093       -6.95639785341583
C           -6.04304013232545        8.26001963387444       -6.96456638925157
C           -5.82826537027605        7.48560119151976       -8.26168654652563
C           -5.82314633673291        8.36440667346004       -9.51375710472162
C           -7.23599750249763        8.63450397887644      -10.02392474155948
O           -7.77522382610913        7.40749266871482      -10.47338583881787
C           -9.16977662866457        7.39003087682251      -10.70226046360962
C           -9.93370797345280        6.61990190827132       -9.61997828529433
C           -9.95490994699810        7.33597840791450       -8.27247271537238
C          -10.69791884713332        6.51864261163979       -7.21116931375835
O          -10.18514018342911        5.22863742231417       -6.99121391923615
C           -8.91907506972812        5.16502257082351       -6.36455593685115
C           -8.81599311823675        3.80213776822201       -5.68163484279972
C           -7.48149744738344        3.54878537706549       -4.98482897079076
C           -6.31714710271427        3.27982156872037       -5.95176740304569
O           -5.35797615335551        2.37724400392273       -5.45246868834162
C           -4.70017561935098        2.81410414802220       -4.27654977844477
C           -3.51810042847630        1.88997392366222       -3.99418285802337
C           -2.79905565413145        2.24937073405128       -2.69530148016474
C           -1.94908927201716        3.50976162368603       -2.82110272806637
O           -1.55804159518368        3.94526941390594       -1.53308113536720
C           -0.86279884966402        5.17672735538224       -1.57058731073002
C           -0.84983933057852        5.80056312331422       -0.18050614876939
C           -0.13671498836883        7.14932683977949       -0.16814868415954
C           -0.36358082505624        7.86614477190261        1.16862672665936
O           -1.71896563626312        8.16213775910023        1.40727594261855
C           -2.18414350188498        9.35041265882717        0.80082511565377
C           -3.70269309608119        9.39417333394226        0.93766135369784
C           -4.30724549196909       10.74891499294047        0.57299172951007
C           -4.13436958464908       11.10660741142008       -0.90208176486287
O           -4.74231272182586       10.09487970434535       -1.68303424500594
C           -4.88098009246018       10.40265629885798       -3.04502015161930
C           -3.56409364873318       10.40260543777484       -3.83521475194575
C           -2.71074821201453        9.16010026383538       -3.58364817838887
C           -3.41582119384076        7.85277834259469       -3.96243706950486
O           -2.50686799183608        6.77460315616916       -4.07679083626386
C           -1.89653184078193        6.63236566543833       -5.34526948426805
C           -2.71834710379773        5.74361840150337       -6.28278261462260
C           -2.17029513415242        5.74043557397441       -7.70679016375658
C           -2.88278108438707        4.69504491312776       -8.56187596090232
O           -2.58198068375808        3.42766546000352       -8.04084896617550
C           -3.27644481669129        2.36869299266660       -8.65723399627242
C           -2.91187373427292        1.07886241307906       -7.93231036555984
C           -1.41889514091535        0.78067210629968       -8.05743021575548
C           -0.94145322920348       -0.23203469287132       -7.02123195327957
O           -0.96104495386513        0.38760404699996       -5.75215442233683
C           -0.15336972372764       -0.20956854355805       -4.77236227304282
C           -0.68424049122895       -1.55016709463739       -4.25000921171533
C            0.20002484333882       -2.12339733678093       -3.13914458770037
C            0.01581123802783       -1.41753894639010       -1.79574650887744
O           -1.19650883961248       -1.75716803585575       -1.16218886264499
H           -7.68293616414546       11.68117722104626        7.13700900138647
H           -5.87490307253819       13.51031907849085        8.25554551027631
H           -7.10690691991809       12.66676119712097        9.21630771188370
H           -7.62998013112409       15.05441045679054        8.39544479050399
H           -7.80577993390365       14.36098185635018        6.78052072723001
H           -9.39876980089563       13.39943358138032        9.20144739272769
H           -9.94049522556001       14.71849974005884        8.16934059518313
H           -9.88119859359790       13.18564172861707        6.18576400946635
H          -11.09995320822854       12.78684110614473        7.42066371739699
H           -9.76216000557184       11.18921495255063        9.24687521079565
H          -10.98511453015691       10.47076337967640        8.17145378378711
H           -9.37703870517896        8.76835776289635        9.07767954782448
H           -8.03709190252795        9.65779329354275        8.33852169542650
H           -9.18007708104922        9.39149678805796        6.10443908028765
H          -10.32513118992827        8.28272442039671        6.86668819729071
H           -7.28899210078764        7.91634619001417        6.91044710683088
H           -8.50391914543571        6.69824802220353        7.37024360503276
H           -9.18795541241933        5.28222428340375        5.57972697265897
H          -10.25761896092251        6.64524980305814        5.17081965959489
H           -8.08751982705249        5.58755371792249        3.30842713414654
H           -9.32061852044689        6.78301305187129        2.91472327717153
H          -11.09807311671363        5.05247866242002        3.32415068621068
H           -9.82604452460112        3.84789074203798        3.58073034549477
H          -10.53920931711743        3.59477612629881        1.31162792651769
H           -8.96915541761559        4.43832680311882        1.23011681215827
H          -11.34285144659771        4.55919175995775       -0.74454618459119
H           -9.69104631015127        5.19676813877295       -0.90397073246632
H          -10.63035472124649        7.52624840381263       -0.77651294200327
H          -12.26059584746767        6.86114127639950       -0.81487026759116
H          -11.94147336999557        6.00337263119474       -3.06074944080069
H          -10.20135956811587        6.31337577615818       -2.99821018558704
H          -11.33189511456177        8.03922973103022       -4.34064705378838
H          -10.59965548376329        8.75148133466544       -2.87822778478855
H          -13.05845544106289        9.73450714169963       -4.47759155943170
H          -12.09496849173797       10.50854561697813       -3.19125333087141
H          -14.67577832942025       11.07600041187405       -3.47264719261973
H          -14.90365648469136        9.55704781261679       -2.59638147201059
H          -14.87421976609158       11.65951195244065       -1.14914807975762
H          -13.18178343609675       11.87421214088826       -1.59150595631729
H          -14.38657710138948        9.59843711345695        0.02999214985329
H          -12.76069372395063        9.51167740148977       -0.68114293438935
H          -11.88539287194048        9.42660879230692        1.42969830083004
H          -13.37191394660916        9.74329427759675        2.34621302134057
H          -12.46240427695718       11.82256156632723        3.23758801649831
H          -11.06934958155856       11.74297889586957        2.15631682645452
H          -10.66168849597050       11.04204827219133        4.60222533458351
H          -11.57659421738517        9.57591786211920        4.23057698659275
H           -9.23800649889585        9.05203699110796        3.90745862203747
H           -9.96902997672407        9.15978167298478        2.30414725534624
H           -8.19665717506470       11.31250761419060        4.66198663045485
H           -7.27877288630040       11.93554794101151        3.27428534526011
H           -7.17531070865570        9.08217830792647        4.38240777622080
H           -6.41334212460857        9.58344553377983        2.88074404209846
H           -4.86682260810561       11.01592775572444        4.02056424761114
H           -5.79433551075241       10.96407800044258        5.52960877811976
H           -5.30486173855597        8.59619366148401        5.82916356298092
H           -3.77520434756018        9.48224396845252        5.62754699766845
H           -5.10137081053882        6.63734335943485        4.84085988906366
H           -3.33258811262508        6.85050061642748        4.92158262463325
H           -4.90505267739009        6.51499078302093        2.32512497851063
H           -3.15220553077654        6.60421754042757        2.48847064187464
H           -3.29745869207772        4.46610640967953        3.91763738217477
H           -3.70701377406963        4.27573319408255        2.20794320554256
H           -5.71721548077018        4.53271106005870        4.48988212017909
H           -6.12305858604515        4.49338684057735        2.75260188229723
H           -7.38144516572235        2.64351296200787        3.30908653353971
H           -6.77568681228035        2.42098240282547        4.96755006993232
H           -7.58067846198997        0.30802400233064        3.86210766216466
H           -6.29541863305096        0.47326255055444        2.65493140402035
H           -5.80877702765786        0.18812260716301        5.65004016443033
H           -4.58229153060989        0.32112758582686        4.38142444862399
H           -4.92750036836470       -2.04233791934641        5.09176064423897
H           -6.64941470354581       -1.91866523217079        4.66105677532810
H           -6.41498210890476       -3.61911428478655        3.15879654396616
H           -4.65034319669444       -3.79578354432993        3.30879507388438
H           -5.30129253121530       -4.53139952602823        1.09499347919462
H           -4.42735048390129       -3.00012682620180        0.92265794686767
H           -7.47410349840120       -3.24777505990644        0.95171708290951
H           -6.54207165862722       -1.77141227124524        0.69086704165622
H           -6.51270775747749       -4.23939484450977       -1.12064312867078
H           -5.56014281839171       -2.75854666838401       -1.36959626343144
H           -8.67356018345028       -2.43977742613866       -3.25156356611612
H           -7.40783193790068       -3.69198614922388       -3.26472650073741
H           -5.69132329189666       -1.78093684134416       -3.29480232710565
H           -6.65310465490362       -2.01447395479608       -4.75442256495361
H           -6.44200679782119        0.37064375325283       -4.23488995468626
H           -8.12923629963366       -0.13196994397880       -4.10372982557477
H           -8.00577244333332       -0.15869390424780       -1.67527019776109
H           -6.24104189657134        0.04858405505415       -1.71213960965418
H           -8.98700687831428        1.81996714651443       -1.03748635550422
H           -8.10569878627603        3.32252928187281       -1.39183528714453
H           -7.79833979696908        2.67174058923732        0.92522573493815
H           -7.24058441184767        1.06063821858721        0.47298980113981
H           -5.17614317974867        1.90092020208414       -0.41433984563713
H           -5.41551466246025        2.60917217978172        1.18215454350735
H           -4.54153422077212        4.27829146286197       -0.38315828091346
H           -5.83985299867619        3.92722359081703       -1.54080439809734
H           -6.70480682418285        5.98246652535140       -1.60468006562140
H           -5.35184125107366        6.54908202158840       -0.60339051441462
H           -8.23227368065551        6.70258083348433        0.37390390634263
H           -6.84435007510368        7.60544868188176        0.97441459271000
H           -8.08886739346310        7.90048346616683       -1.80706629902041
H           -6.68991992166728        8.80941090837557       -1.22144291102930
H           -8.04035109794235        9.96086758415027        0.42438073067345
H           -9.40971125812038        8.86977611588714        0.16814233405621
H          -10.19433453088554       11.71714835773595       -1.89651518184391
H          -10.62019900827349       10.98391529787356       -0.32377515383845
H           -8.64804556677283       12.00682832264554        0.72544622003488
H           -9.58596956385005       13.24176900131206       -0.11500819956840
H           -7.15147510733989       11.81403902606376       -1.29108010302405
H           -8.06893114980405       13.09802548704858       -2.07064839831245
H           -7.45899505120914       14.62905631833810       -0.15935077718765
H           -6.37186755217884       13.36911264006451        0.46475293636057
H           -4.40705626187401       15.39868266337730       -1.89158621386070
H           -4.65897366171332       15.27328211852685       -0.13121547736376
H           -5.40219717626867       17.47233787833608       -1.15211144326099
H           -6.64144013016198       16.64477388106779       -0.22322262078183
H           -6.47999210853936       16.98309523799937       -3.23088299955930
H           -7.25003358850157       15.54781639144572       -2.56925026974694
H           -8.64432350417420       17.15678367604831       -1.08277927382742
H           -8.10374365387919       18.44186702406201       -2.18720981127399
H           -9.59324071287786       15.32085468941249       -1.97361463962460
H           -9.52644137762864       15.15552010753166       -3.73918304703114
H          -11.67679979829899       16.41500953487418       -3.90726976807726
H          -11.72101423132844       16.56491083874127       -2.15327631504547
H          -13.18644998091426       14.75506043016454       -2.75944262663296
H          -11.76992063771730       14.04243885986601       -1.97621354257561
H          -11.89476802434539       14.26395579266240       -4.99903846144449
H          -12.72828626046816       12.94107590044204       -4.15049705154418
H          -11.22500108282030       11.48167457274428       -5.27005341340063
H          -10.27955047046325       12.81815357494204       -5.96121135163810
H           -9.19513383301566       10.82829475823764       -3.89829890897224
H           -8.27905519449330       12.08851618000582       -4.71650601161086
H           -9.64492732661947        9.71344609620729       -6.08408854973383
H           -8.78093236771646       10.99682007918714       -6.92869947773943
H           -6.69364405718751       10.39783426022686       -5.68540652947808
H           -7.56335618386556        9.05234436490180       -4.91136948169946
H           -5.97461598850770        7.56951860924302       -6.10597533449027
H           -5.25091552661828        9.02030266413828       -6.85011297444879
H           -6.60966208745405        6.73415709843567       -8.37510324176524
H           -4.86975916872859        6.97227876701248       -8.17711822747889
H           -5.27571618958922        7.85029927782764      -10.30512675646310
H           -5.32837408496924        9.31490254479473       -9.30880791641744
H           -7.84231676723704        9.06342938020910       -9.21997734186685
H           -7.20112077002506        9.35260692885986      -10.86025900919159
H           -9.31948950654043        6.88664608856037      -11.66544227782238
H           -9.55941452022789        8.41191689420510      -10.78570907459767
H          -10.95811903831131        6.46445854731883       -9.96628203670190
H           -9.46866564174984        5.64091892704602       -9.49746981983217
H           -8.93770525506912        7.52495439827035       -7.93097686188997
H          -10.46071041695971        8.30002288322626       -8.37160571861334
H          -10.70540895893631        7.08329410473204       -6.26390069391744
H          -11.73232072497601        6.35166907902372       -7.52646006003856
H           -8.11487144540236        5.28512221189291       -7.10418152991383
H           -8.82563624614328        5.97129981470470       -5.62140891295148
H           -8.99787322090331        3.03152740058825       -6.43199596827332
H           -9.62142223941687        3.73933101212023       -4.94698183461443
H           -7.24144469117874        4.39778659879966       -4.34027376568888
H           -7.58913477108789        2.67098571319819       -4.34579894358114
H           -5.82461901521008        4.22540738612461       -6.23310453672188
H           -6.69288890406347        2.80046211148914       -6.85981125481619
H           -4.36236635010000        3.85152461642817       -4.41165322731869
H           -5.39453812726153        2.77981550579893       -3.42691612057185
H           -2.81353303494666        1.91899569429357       -4.82662510060713
H           -3.90443530711477        0.87262161453982       -3.91814895802692
H           -3.52978149126272        2.40711259562594       -1.90086776970517
H           -2.15624183802378        1.42084918391159       -2.39512333722703
H           -1.05875190101374        3.30869018997447       -3.43771179544173
H           -2.51941967247993        4.31189610952268       -3.30685130040228
H            0.16777780894767        5.01095059138046       -1.92754824858736
H           -1.36010091508663        5.85684571290594       -2.27513027772382
H           -0.35714299327755        5.12480374464273        0.52015558275760
H           -1.87997930239836        5.94084296494438        0.15080806526731
H           -0.51782234251392        7.76628424228410       -0.98442799507921
H            0.93546506168679        7.01597663407000       -0.32207488317432
H            0.24202704828810        8.78319173752202        1.21394715541802
H           -0.05936068292825        7.20842331576168        1.98869204078591
H           -1.72835876425934       10.22092199172013        1.30264236340581
H           -1.88822489344956        9.37878649389808       -0.25651303362810
H           -3.94535016237742        9.14937033589080        1.97220470767561
H           -4.13645901826450        8.62901065154598        0.29433449623887
H           -5.37520690075842       10.71983079869969        0.79380222502729
H           -3.85217476596716       11.53821773173006        1.17500227823970
H           -3.06611136028151       11.19390467445839       -1.14555902421316
H           -4.60893095882450       12.07440973934053       -1.11798372756933
H           -5.36842937721236       11.38307378333721       -3.16364447453097
H           -5.54906388944857        9.63257780613407       -3.43908380886188
H           -3.81113710193966       10.47712490340646       -4.89689865717071
H           -2.98243232162377       11.28771138349158       -3.56895037576020
H           -1.78777846447045        9.24313242566290       -4.16389059559726
H           -2.43778380692495        9.11133495118389       -2.52926659440412
H           -3.96859266296799        7.98541143740684       -4.90058658842135
H           -4.11980676430799        7.56835678953569       -3.17666788084749
H           -0.92057608122597        6.17398411754125       -5.16092397604017
H           -1.73443452740554        7.61533252079262       -5.80698818650450
H           -2.70907925736267        4.72054744067155       -5.90666619857547
H           -3.75382972354014        6.09438158879413       -6.28890945038755
H           -1.10806171103870        5.49315934443640       -7.68286166442314
H           -2.28595450024983        6.72411486820646       -8.16738784144947
H           -3.97257394833268        4.86094199686725       -8.54651755415049
H           -2.54887213675137        4.76744891920825       -9.61088645284116
H           -4.36123093033308        2.54261158557622       -8.59103139891902
H           -3.00260874883306        2.31040365246900       -9.72432696469757
H           -3.50358738311564        0.25792333647918       -8.33984275107318
H           -3.16762974803624        1.20262880734554       -6.88129441895256
H           -0.87163034860184        1.70947688181434       -7.89627338326234
H           -1.19048392463913        0.40616139134569       -9.05730490179336
H            0.08474261893737       -0.55307279590277       -7.25949324108410
H           -1.59128143853335       -1.11948027847162       -7.03130025926063
H           -0.11901008664987        0.52314001729212       -3.96207737530556
H            0.86983302190739       -0.35239785294619       -5.15871308090265
H           -1.70956715371505       -1.40357180207937       -3.90125604291351
H           -0.71682051788902       -2.26278933864140       -5.07658737778791
H            1.24751998977621       -2.04659671985374       -3.43716219193147
H           -0.03124705307257       -3.18197910917318       -2.99805946418787
H            0.80856805465252       -1.71603653070448       -1.10335391850045
H            0.07573086355269       -0.32799902364582       -1.93590168877601
H           -1.88085273356240       -1.82162887607747       -1.83990536090745
