44
 energy: -64.391420070914 gnorm: 0.000178351294 xtb: 6.7.1 (edcfbbe)
C            0.55747659504055       -2.57978120613739       -1.20526487833920
C            0.36472386041452       -1.45670791869066       -0.17668917922917
C            0.89083423599263       -1.97232890624860        1.16641630771372
C           -1.13379474208867       -1.13896687734624       -0.08905723747193
C           -1.43660309767934        0.15858274213749        0.66216777955053
C           -0.68162327833461        1.34750437433476        0.05825508965767
C            0.83464720832570        1.13220927609803       -0.04530072557854
C            1.42258113305099        2.22383431306812       -0.95041300649300
C            1.45526331944558        1.31118226142491        1.35945894448603
N            2.84149219785788        1.04002173842514        1.42427048272705
C            3.71794988122384        0.31098167408328        1.09586196358078
O            4.70530087083987       -0.26426449470421        0.88710685506167
C            1.13483853570059       -0.22850943482162       -0.69123169181256
N           -2.83706316356104        0.42432644235470        0.63164178019089
C           -3.75250984579523        0.63982624774252       -0.09173124954530
O           -4.77036359355522        0.89816871516704       -0.59068689266644
H           -0.01379832233443       -3.46052984905687       -0.92069794261633
H            0.22968100845487       -2.26317703785518       -2.19267856608140
H            1.60694412833777       -2.85751764987500       -1.26823486755202
H            0.62939619209646       -1.32144568204932        1.99403854617446
H            1.97364819851347       -2.07115162965695        1.13866594191856
H            0.46811787122647       -2.95333263467934        1.37457324958678
H           -1.54869277273566       -1.04665994482945       -1.09312261996079
H           -1.65503894566189       -1.96260126341733        0.40286276258275
H           -1.18991095000948        0.05171328243769        1.72329380645636
H           -1.07900293122422        1.52579127247475       -0.94337504578626
H           -0.88909817479043        2.24137590864930        0.65148791430712
H            1.16961314031073        3.21247044576236       -0.57297681561087
H            2.50608846229832        2.13788208181154       -0.98615733075248
H            1.03916599061505        2.13346643085865       -1.96382513460459
H            0.94429934633055        0.68968820989568        2.09888136241541
H            1.33609710919964        2.35607525031396        1.66347261192240
H            0.90869884976459       -0.12597044952735       -1.75493508051999
H            2.20617240799883       -0.42906564527982       -0.61845181189524
C           -2.76353379138044       -0.78531631725658       -3.81726729364032
C           -1.87874694419238        0.27215238545183       -4.48609089085049
O           -0.79127752414976        0.59060528653792       -3.65538902564193
O           -3.20849439484344       -0.32238963327400       -2.55689453648882
H           -3.60108853119955       -1.05489446596842       -4.46797032473507
H           -2.16987606384150       -1.68088001489976       -3.61398741708615
H           -2.47524174485753        1.17560108435588       -4.68988871316642
H           -1.47232113054894       -0.10263835054459       -5.42688507704405
H           -1.13369736846049        0.59147268519326       -2.74873938536466
H           -3.95022295582814        0.28250204164088       -2.67593726178792
