154
 energy: -204.419985475738 gnorm: 0.000206566814 xtb: 6.7.1 (edcfbbe)
C           -0.06974326335351       -3.34065600132607        0.29355713597851
C            0.03899581914233       -1.86234099835246        0.69273083661403
C            0.34402021275585       -1.81933362158854        2.19308834946088
C           -1.29917833980221       -1.18100992916411        0.37762391897889
C           -1.22551352213274        0.34343698599465        0.47307475846323
C           -0.16041724819153        0.87999007391780       -0.48623182784770
C            1.23483818850714        0.29727643719902       -0.22717393821726
C            2.14920213920920        0.67735922036852       -1.40028224689994
C            1.82766939624085        0.94654945918855        1.04352815795147
N            3.08143989675340        0.42033154323784        1.43403668070556
C            3.72981768910657       -0.56054231788307        1.59107297802098
O            4.52488568296997       -1.38062572191103        1.80413590945759
C            1.15186453784399       -1.23547876042994       -0.16511215542525
N           -2.48971612100324        0.92109914945353        0.16186588694158
C           -3.35026242293907        0.96745513075119       -0.65302138717513
O           -4.30920903412698        1.17222889081805       -1.27969437421168
H           -0.86023463492303       -3.83033927384342        0.85751834436231
H           -0.29672611940246       -3.44141376202153       -0.76510577338476
H            0.86571509427239       -3.85726863708311        0.49617332775216
H            0.26759055488766       -0.82015055732879        2.60820896202035
H            1.34698939447476       -2.19311137577543        2.38733991725451
H           -0.36113991293005       -2.45143370929605        2.72934603167728
H           -1.59813839281518       -1.42721797609615       -0.64355201904171
H           -2.07049809163791       -1.55113529350332        1.05594225763724
H           -1.01870053039320        0.65952351409357        1.50047939881654
H           -0.47006999176377        0.60533059659358       -1.49550174729677
H           -0.12837796811029        1.97014561033017       -0.42570023692181
H            2.19871734326553        1.75837238481327       -1.51252081639631
H            3.15659167379939        0.30360850281984       -1.23113766572342
H            1.77789326340782        0.25561760490574       -2.33094995197162
H            1.13998838224369        0.86639604328015        1.88831482689524
H            1.99212603805789        2.01108715918446        0.84865345191941
H            0.98963386246591       -1.57662120248747       -1.19012013580876
H            2.11654531320839       -1.63711616927676        0.15402625292086
O          -35.44295393151482      -18.52484203664762      -12.26793214123442
C          -34.13784550685511      -18.84764750204129      -12.70623499032556
C          -33.13269457028186      -18.03091715817337      -11.89971178266295
C          -33.25556163243805      -16.52694285211098      -12.14568301516764
C          -32.65781341910424      -16.09427846391498      -13.48019530316887
O          -31.27217869496164      -16.35270747354742      -13.46824847485910
C          -30.62648353936625      -15.98423065659417      -14.66168433284098
C          -29.14177125452916      -16.30300489718657      -14.53579057648659
C          -28.37822747404836      -15.96654060685174      -15.81270582432545
C          -26.88481526672856      -16.23316646261855      -15.65875268269390
O          -26.35404831829513      -15.33749960643751      -14.71358738309899
C          -24.97864005837579      -15.52591641865243      -14.47877478443120
C          -24.50588472115140      -14.51159308445938      -13.44503465643502
C          -24.62290393503079      -13.07832689570471      -13.95657041103313
C          -24.06972598141437      -12.07671502305917      -12.93807048766665
O          -22.72418892805504      -12.29669537005994      -12.58173819850681
C          -21.78217563897646      -11.95584901606912      -13.57566664269025
C          -20.38781170155662      -12.09820389766601      -12.97142447679111
C          -19.26906764244270      -11.93284053921075      -13.99576020478212
C          -19.12050458455715      -10.50059067289366      -14.50134644052243
O          -18.02544321760007      -10.47085574208332      -15.39348405530906
C          -17.82790460643595       -9.24117646498670      -16.04891659896622
C          -17.30730623978414       -8.11929119878869      -15.14429268191777
C          -16.02394229508907       -8.53545284495839      -14.43075691867724
C          -15.58966225814846       -7.50859262802350      -13.39131160511518
O          -16.57757722799707       -7.43598243281444      -12.38449953695612
C          -16.35657562942705       -6.44747147393758      -11.40789467372098
C          -15.27563619829080       -6.81909739521190      -10.38713335834019
C          -15.17098261794107       -5.77800308475129       -9.27850943486428
C          -14.11969156034691       -6.16723590478903       -8.24533116745662
O          -14.02400072627944       -5.14495999576092       -7.28430173591280
C          -13.08148518240178       -5.42036713137212       -6.27594254823920
C          -12.98755524235017       -4.22406463354607       -5.33348736952569
C          -12.54797064279526       -2.94065484057519       -6.03576070077135
C          -11.12230809328800       -3.01663687214503       -6.59435491589246
O          -10.64150214203791       -1.75757561585342       -7.01996340496431
C          -10.05558404716103       -0.95863376512656       -6.01406554203247
C           -8.59277385737078       -1.32433642507653       -5.74071742048086
C           -7.73451054597235       -1.13717162305410       -6.98878878997191
C           -6.29309446709107       -1.60330745658785       -6.76954634584192
O           -5.63063580120657       -0.97639304547519       -5.69721726372372
C           -5.32248630032655        0.38642206218402       -5.89984573883022
C           -4.32689524710182        0.81637577038612       -4.82717235676610
C           -2.97736939754928        0.12021138651868       -5.00654756868358
C           -2.07158557472703        0.30656337429015       -3.79224330980521
O           -2.43211172024918       -0.52443340440955       -2.70924727152279
H          -36.08015707957853      -19.04979060837483      -12.76173437588130
H          -33.94031773474696      -19.91884645868478      -12.55280744812268
H          -34.03290689481459      -18.63262984802632      -13.77876090521485
H          -32.12251314169224      -18.35305921866642      -12.15115250456513
H          -33.31403556214927      -18.23193684632625      -10.84327817222260
H          -32.72486237346332      -15.99585364587512      -11.35505966752407
H          -34.30744723037338      -16.24296200942727      -12.11412399926054
H          -33.13070961769346      -16.63266142610606      -14.31694033846949
H          -32.83601560703916      -15.01767581150293      -13.63711600245592
H          -31.06353753021836      -16.53530517710562      -15.51254301154847
H          -30.77090530334276      -14.90816764510772      -14.85366990105469
H          -29.03394333111018      -17.36371346921290      -14.30329389663412
H          -28.72510619099926      -15.73288190074756      -13.70610208762223
H          -28.51530362055501      -14.91093601956727      -16.05182325508552
H          -28.75737831564642      -16.56161837180016      -16.64583698645453
H          -26.71609607437772      -17.27193039171324      -15.33051964624188
H          -26.37486285145203      -16.10030627360079      -16.62787223347139
H          -24.79875671046982      -16.55029136964184      -14.11300725357283
H          -24.41782754173413      -15.40351278931920      -15.42077314387299
H          -25.11192162502326      -14.62303773977388      -12.54526160250478
H          -23.46705991322727      -14.72259284399066      -13.18750229510273
H          -25.67071639123165      -12.84527021036562      -14.14469293426563
H          -24.08314072131910      -12.98127572750663      -14.90097336235103
H          -24.19269066983811      -11.05263329175151      -13.32455374854357
H          -24.62302795398004      -12.16599364685346      -11.99947814355003
H          -21.96050567085899      -10.92387412551224      -13.91480910768434
H          -21.87279437999097      -12.62204859923192      -14.44618220818629
H          -20.27373028829220      -11.36887067686527      -12.16833051689177
H          -20.32635124389665      -13.09228717909550      -12.52596879636008
H          -19.44103866547093      -12.58958314996691      -14.85025461127783
H          -18.31909063764130      -12.22217728536594      -13.54426923104196
H          -18.95173837044523       -9.82525232497853      -13.65129250132921
H          -20.03098488798284      -10.17376640496921      -15.02700665209278
H          -18.76305972076379       -8.91739643248297      -16.53341946497421
H          -17.08880984066283       -9.45912244658957      -16.82528489831117
H          -17.12990477836532       -7.23545637063241      -15.76007859231184
H          -18.05595356976005       -7.86350446113055      -14.39411340710911
H          -15.21892058426540       -8.66921691488410      -15.15541284298730
H          -16.19547798822402       -9.48841535064284      -13.92946767655219
H          -14.62164246238748       -7.80800580080432      -12.96469246863866
H          -15.46547372507317       -6.51859651848469      -13.85976418873556
H          -16.10195813858101       -5.48980691412827      -11.88765208315870
H          -17.31632520724609       -6.33487716405991      -10.89550573087179
H          -14.31011413226821       -6.90763073067073      -10.88938161134828
H          -15.52356449471428       -7.79385636923420       -9.96215122929370
H          -16.13129038692983       -5.66593579939722       -8.77355161893749
H          -14.90059129210080       -4.80751074087193       -9.69750622456419
H          -13.14218522622337       -6.31509104485492       -8.73464703279982
H          -14.39669005171817       -7.11801554027064       -7.76086857524204
H          -13.38939543276699       -6.31568279290763       -5.70997776235373
H          -12.09953159356256       -5.63487040100032       -6.72599726484669
H          -12.28916897439044       -4.47249325977230       -4.53127022364762
H          -13.97278555718248       -4.06080590860274       -4.89451676430501
H          -12.60086693972679       -2.11635931055394       -5.32093909319259
H          -13.23836115958318       -2.72405145633941       -6.85035409586053
H          -10.45124625075249       -3.45578353720428       -5.84380939975034
H          -11.10250313692078       -3.64544327251379       -7.48771896018295
H          -10.63272041710152       -1.01634414377531       -5.08198082026127
H          -10.11307910924988        0.06601513670408       -6.39283772165393
H           -8.52797985768606       -2.36477470559983       -5.41491010471116
H           -8.21625903021030       -0.69973237721667       -4.92974926053919
H           -7.74433394760169       -0.08615184428680       -7.28433180776485
H           -8.16403226664874       -1.71545303068035       -7.80802460686683
H           -6.28351365843295       -2.66683803710589       -6.51461906996263
H           -5.71881217282249       -1.45900404160079       -7.69898059866193
H           -6.22892474395324        1.00464263377067       -5.83088356609492
H           -4.88605061636757        0.52667807202619       -6.90140620851144
H           -4.75733918926583        0.57165611641199       -3.85428862853830
H           -4.19646993052808        1.89896927199978       -4.87399680683805
H           -2.47627558079820        0.51873690116024       -5.89067172041962
H           -3.14471808708979       -0.94771480154151       -5.16076829556653
H           -2.09204272920273        1.36109057076628       -3.47584584710070
H           -1.03989461133251        0.04021017156900       -4.04171167695610
H           -3.39469054780216       -0.58601173323677       -2.69492476907078
