369
 energy: -480.378488754599 gnorm: 0.000093092235 xtb: 6.7.1 (edcfbbe)
O            5.97824619001416        4.19686228418417        2.82060347925203
C            4.87991673965847        4.51573658251101        2.62276679505202
N            3.81120584603295        5.02743787860334        2.54503053713065
C            2.49579958065540        4.89351461564600        2.01627434362117
C            2.50476938301483        4.95390620074238        0.48691373350681
C            1.08964809231447        4.80192308533444       -0.06515540504873
C            0.43043072596521        3.50616793879941        0.41508357670405
C            0.43235968749212        3.47743058036907        1.94432705177807
C            1.84969661459269        3.59096479529405        2.49355125412750
C           -0.99504707330494        3.39578930539070       -0.13765216341940
C           -1.59497566120426        1.98537988215143       -0.09098674996270
C           -3.11846717606684        2.05856241610009       -0.22143166409962
C           -3.75433492727761        0.67257325011726       -0.18603086387902
C           -3.17565470778020       -0.23372822812070       -1.27662923205527
C           -1.64797015633075       -0.29567834015202       -1.16530969865322
C           -1.03916378404473        1.10259445652675       -1.20949159942657
N           -3.53428623076668        0.20995040550798       -2.57923905005515
C           -4.08401811738044        1.06543305715664       -3.18811178143982
O           -4.51377986254318        1.79956189751114       -3.98165171335512
H            1.93196764947478        5.74791853586686        2.40750770105969
H            2.92610463712413        5.90699634644991        0.16181583992117
H            3.14213406075336        4.15037909914744        0.10793899080443
H            0.48486315784628        5.65684797558492        0.23987348530084
H            1.13539216904761        4.80602946883281       -1.15572831095189
H            1.02480897123053        2.66153764467957        0.05113994099225
H           -0.16781582718577        4.31052151190876        2.31854724366508
H           -0.01973158358210        2.55299486115242        2.30682366699202
H            2.45260942374663        2.74866283985766        2.14502608440152
H            1.83799064556163        3.56575397410637        3.58557789030983
H           -1.00346690368534        3.73898301636710       -1.17475331335353
H           -1.63536158619478        4.07018902341763        0.43414437980965
H           -1.35598651295024        1.52174438650101        0.87216603731133
H           -3.53005678205546        2.66486364201338        0.58892991601729
H           -3.37110742995794        2.54903131641995       -1.16500939642642
H           -4.83201921216794        0.75284199174454       -0.33409184557020
H           -3.56605717755585        0.20492502484934        0.78259251835019
H           -3.58733001108864       -1.24580267159552       -1.16887818584593
H           -1.39116947071936       -0.78323038406813       -0.22276132291132
H           -1.24959301824425       -0.90025427195006       -1.98180707058944
H            0.04616615308350        1.02471064297151       -1.12614503584456
H           -1.26818425189386        1.56046705481484       -2.17444787292356
O           -6.47571747629837        0.82399315297377       -1.95780014906239
C           -7.26714139526837       -0.15464296196816       -2.58445386154176
C           -7.98702643884867        0.37869480347999       -3.81903578807056
C           -8.69666301155095       -0.71895452153919       -4.60548663457258
C           -9.64119581595072       -0.13655944290451       -5.66395105830192
O           -9.03422386250750        0.70414773633154       -6.61365053311045
C           -8.34761103546654        0.07697223811958       -7.68036829619359
C           -6.81973666787165        0.19420122794449       -7.61402442518439
C           -6.30434658398994        1.61029212605304       -7.87346720408160
C           -6.57076727395353        2.53795528902141       -6.69212780032605
O           -6.07942666960639        3.83362491745326       -6.98736051200716
C           -5.81119748995952        4.62971508969088       -5.85804753047247
C           -7.06462803359605        5.17132066054753       -5.14613964636289
C           -7.61007708537759        4.29612627824262       -4.01515878847356
C           -6.73337711776957        4.31767556888575       -2.76729737318959
O           -7.36054262729172        3.54280923104043       -1.75949042836134
C           -6.76884516179543        3.70057334078993       -0.48414193122280
C           -7.56389198662644        2.89399464759676        0.53464978883400
C           -6.97328168730853        3.02332242906769        1.93562003791229
C           -7.92171513405401        2.44410997068134        2.97940024632488
O           -7.43500257284586        2.72481165032541        4.27157600643998
C           -8.26780095035449        2.21999688407135        5.28897779993247
C           -7.73028129894557        2.66698743775447        6.64281654694468
C           -8.50698058934053        2.03525259579792        7.79492258859305
C           -8.00722499821925        2.52827145514836        9.14918384883899
O           -8.38329148773667        3.88032937888377        9.30114877018607
C           -7.89549627828584        4.50475596763661       10.46411335744951
C           -6.40871222658844        4.87927104351472       10.38803704225899
C           -6.13570507097773        5.68206345360119        9.12169591376995
C           -4.66834268457073        6.04276448111468        8.94064805369590
O           -4.51569388905169        6.59245912967639        7.65109251116297
C           -3.17933718757418        6.85648832002724        7.30151846433731
C           -3.12917141828432        7.21838818361152        5.82109653275788
C           -1.70880868066652        7.52204718020820        5.34518593667389
C           -1.29261234014234        8.96106438572503        5.63151724502610
O           -2.03520105637688        9.82666252231483        4.80341911372201
C           -1.75216518901962       11.19008087118941        5.03925999319586
C           -2.59822252865670       12.03864549318163        4.09672133841961
C           -2.21121266529440       13.51638890155324        4.13669107628945
C           -0.99411634087242       13.82601500729962        3.27042332569000
O           -0.55697489218844       15.13804346225343        3.53866049442002
C            0.51568007484106       15.53559436449779        2.70728065077403
C            1.13418103765772       16.81915965959948        3.25228693328326
C            0.17429499574186       18.00701785625736        3.21951989935264
C            0.02389620855200       18.66129496125118        1.84759405302271
O           -0.55302652775876       17.76703028552959        0.91776035195324
C           -1.12250238252450       18.36154199701723       -0.23009938183964
C           -2.58977333549263       17.96082670549336       -0.41698657593027
C           -3.47649268059891       18.36219122131262        0.76455230211310
C           -3.44583220305844       17.31398003533872        1.87180914929357
O           -4.04258279387064       17.84445475774472        3.03798398184027
C           -4.03340970367316       16.92361667213405        4.10119705906927
C           -4.77321654807143       17.52541071917995        5.29131816691702
C           -4.69435131723967       16.65076223167118        6.54163351428371
C           -5.22307312301162       15.23275463036257        6.28967421522085
O           -5.43522858173330       14.49392826859022        7.47604557060513
C           -6.67423645378775       14.70863371796026        8.12726968517931
C           -7.68191282317120       13.58320071335957        7.85458106774224
C           -8.04633875782578       13.47232132307029        6.37666512218147
C           -9.06761803570495       12.36224899521468        6.10323718367472
O           -9.25426341022890       12.13538921576582        4.71983553182297
C           -8.61060366779401       10.99605363376237        4.19266613225926
C           -7.08615602024665       11.12182181563569        4.07975912129961
C           -6.65197512788599       12.28431627704660        3.18238578652951
C           -6.47751430080342       11.84893305323920        1.72419527860459
O           -6.03822774230926       12.86829318221594        0.86038721598475
C           -4.73381818641018       13.34499921005950        1.12529683756607
C           -4.08497964862464       13.88391306822356       -0.14811024532223
C           -4.03086685521388       12.86748303527311       -1.29061167045694
C           -3.43479870600679       11.52261052867605       -0.88493452051579
O           -2.18434688493907       11.70013835144869       -0.25888299803899
C           -1.71043765950614       10.51059871170164        0.33204263082886
C           -0.32336075216944       10.75931957714579        0.91698551188915
C            0.06307236205135        9.75079079190009        1.99812719668366
C            0.38026418501804        8.35343879968257        1.45228876501376
O           -0.64885526559492        7.75444271456692        0.69520801260407
C           -1.74691568639436        7.27477175211816        1.44058432334099
C           -2.83051278618043        6.83413348960547        0.46059932710263
C           -3.99493958546772        6.11262232011900        1.13354320439354
C           -4.87618625134640        7.03515711114786        1.97137869237781
O           -5.97550500462439        6.28920876694425        2.43991695724171
C           -6.81956370404802        7.01680485497048        3.30664758952858
C           -7.94343627098414        6.10342084745905        3.78654164385119
C           -8.90360858916193        6.81236412218750        4.74009391144526
C           -8.31035523139689        7.07528307033132        6.12796916275682
O           -8.73111412873429        8.36219799955372        6.54762315455906
C           -8.22317693312980        8.76972886516595        7.79718963611857
C           -6.76189284490655        9.22393185796695        7.72814837224811
C           -6.24922372719588        9.75517859067544        9.06215926896494
C           -4.83660106044180       10.31104380431159        8.90404344948504
O           -4.28774180282086       10.55220461538252       10.18258880236470
C           -2.89171288518529       10.73009074562846       10.19626166039001
C           -2.40806642733345       12.02413060830711        9.53652631367543
C           -2.96508277442817       13.25792177342269       10.24044940354824
C           -2.60893687135913       14.53992387683592        9.49825976253404
O           -1.20329400346128       14.69589975570042        9.49157154334380
C           -0.74725564145601       15.86314820228799        8.84753281741664
C           -0.72266055659329       15.77504297907443        7.31619850672839
C            0.43720373534416       14.95180197560337        6.76032277447412
C            0.46067220117283       13.52007709930081        7.28410975534685
O            1.30277449993237       12.74795757596812        6.45015821380356
C            1.58545388147994       11.47204898581760        6.97254638342808
C            2.32157993214082       10.65842188177806        5.91341026702316
C            2.62238980195654        9.23853422296027        6.38544215330479
C            3.20217800819639        8.38439571865286        5.26173866733038
O            4.49637048243284        8.84928791413364        4.95848516664910
C            5.09770048443612        8.21572623922573        3.84943890029301
C            4.68647304406101        8.83728846503121        2.51202601764571
C            5.25736981531807        8.05962552787811        1.32995748735486
C            4.95972364375068        8.76235075214515        0.00884638529066
O            3.55948545736345        8.88861961763321       -0.15747754292838
C            3.16403359541318        9.91540256628258       -1.04174963457019
C            3.23546883081256       11.30908305594576       -0.40736068811504
C            2.67970047229169       12.38805177200483       -1.33009721216456
C            2.75693738898171       13.76466711763899       -0.67660806090084
O            2.37849587025709       14.73478895079581       -1.62665132593800
C            2.28257821329540       16.04966186819766       -1.12704565811108
C            3.64395589098898       16.73437074731462       -0.94435925410297
C            3.54851562378576       18.05120694330014       -0.18020177479353
C            2.79104538961080       19.13839471745717       -0.93368229188881
O            2.77209756028745       20.29699240654528       -0.13204351002792
C            2.05726720240622       21.36337514454708       -0.71405387635788
C            2.12279503223096       22.60603684078706        0.16935675639557
C            1.37866636274889       22.45830460419949        1.49714920512382
C            2.21158319291730       21.72574272916722        2.54490755259964
O            3.24353033917495       22.59295097600605        2.97518820102708
H           -6.94780386700524        1.67666281446079       -1.98369378346678
H           -6.58478535740630       -0.96645082834277       -2.85758907191093
H           -8.00555777699194       -0.55499355537900       -1.87010615959089
H           -8.71765176171034        1.12766716007548       -3.50043479810444
H           -7.25851046130934        0.87131022128899       -4.46320260865972
H           -9.29651643058657       -1.33118263186008       -3.92766629149343
H           -7.96092359029525       -1.37014261503556       -5.08180117370296
H          -10.17036509180860       -0.95917635682988       -6.16929070970497
H          -10.38370643807084        0.49722960886442       -5.16881134585859
H           -8.69500409744532        0.56564793481990       -8.59958426605340
H           -8.62927731829561       -0.98283177752420       -7.73123009349941
H           -6.41261234029301       -0.47441382890897       -8.37598367053908
H           -6.46445159940546       -0.14788461585500       -6.64064215691959
H           -5.22796110632074        1.57940111018126       -8.05318246064675
H           -6.77945143102176        2.02399172757587       -8.76407048628396
H           -6.04906676402850        2.14910470751781       -5.80822036650492
H           -7.64915879426765        2.57116955697489       -6.49596103278035
H           -5.18044863700559        4.07560072337855       -5.15066669190206
H           -5.23458271062964        5.47050482838363       -6.25441878451742
H           -7.84075250359662        5.29507051837049       -5.90371093368628
H           -6.83486750792643        6.15977765382591       -4.74181617233913
H           -7.72155637195352        3.26683397075436       -4.34772440624171
H           -8.59955685663183        4.66079707565428       -3.72980074933980
H           -5.73474456291780        3.91029247270983       -2.97591988830015
H           -6.61197058846316        5.35234421466804       -2.41215437547972
H           -6.77701307837765        4.76291408116880       -0.19974093072221
H           -5.72433769432862        3.35894035287282       -0.51177458065905
H           -7.57814625639599        1.84687575512301        0.22970825107437
H           -8.59275778971852        3.25852967258425        0.52848844988800
H           -6.78820021388780        4.07137156243882        2.17140255566287
H           -6.01933945832771        2.49765985157815        1.98940625717837
H           -8.92441896842556        2.88717713072549        2.86151635863778
H           -8.02200038597181        1.35461509197096        2.84419282884102
H           -9.29726621510708        2.58792817652927        5.15026390970863
H           -8.29741341995024        1.11848502295817        5.23605134863586
H           -7.79944568126695        3.75279972736528        6.70889573133308
H           -6.67664122014172        2.38905331647464        6.70268833549478
H           -9.56372715933648        2.29088940895777        7.70675930522234
H           -8.40998926124993        0.94866619373631        7.75810101210755
H           -6.91588566915562        2.41564919398473        9.20203113151754
H           -8.45168630477038        1.92968682649960        9.96101553998054
H           -8.07674047199192        3.86925739347182       11.34404227334327
H           -8.49332352068676        5.41521555402485       10.56280989092369
H           -6.15320957485273        5.46126027956381       11.27508355172847
H           -5.79438909378653        3.97654886440316       10.39408326209748
H           -6.44919581122797        5.10171612637641        8.25306158005370
H           -6.72562028354915        6.59749789867695        9.13837506517020
H           -4.34142184942264        6.76492832014987        9.70575546193457
H           -4.03903494237955        5.14276385526689        9.03675113436346
H           -2.55983464839800        5.96358562479458        7.48740308924494
H           -2.77769185076051        7.67214011364892        7.92525771335361
H           -3.54301005359254        6.37811080815108        5.26137749878772
H           -3.76297445103893        8.08747033027994        5.64056448144154
H           -1.64954241672005        7.37049398890527        4.26810286423924
H           -0.99910747554428        6.84549310397322        5.82524547932643
H           -1.46709600164647        9.21280068591286        6.68929498437311
H           -0.21837242498103        9.08761163979368        5.42788187572137
H           -1.98585018153849       11.44048777418990        6.08641244181308
H           -0.68254672370130       11.38476153156101        4.87846578722070
H           -3.64514904734056       11.91665057845974        4.38023133049292
H           -2.47901229405375       11.65376118748826        3.08317165678837
H           -3.04151363581036       14.12607544509856        3.77936256457629
H           -1.98895898254683       13.81601785934721        5.16155157755634
H           -0.17775588307222       13.11982660005920        3.49161708390250
H           -1.25939748127867       13.72696039776308        2.20583806053704
H            0.15135494214371       15.69134732952249        1.68311961756610
H            1.28120349168518       14.74239351846494        2.69528358665038
H            1.43377823843737       16.63562009114569        4.28556516688762
H            2.03013746468558       17.04664998761627        2.67159512351677
H           -0.80149039562213       17.67279896955884        3.57049324973355
H            0.53719527449474       18.77952127847828        3.90064540534851
H            1.00582322092967       18.99962858857129        1.48300404516919
H           -0.61633288306338       19.54822938807460        1.96052924051753
H           -1.05230321167881       19.45433220835810       -0.16538371885820
H           -0.54920092374297       18.03548632174599       -1.11059947998216
H           -2.64833261877684       16.88149441994963       -0.56262230327608
H           -2.94427352401729       18.44626196188018       -1.32799662289777
H           -4.50769643055886       18.49048319167209        0.43231679883371
H           -3.14631897553949       19.31503990513130        1.18083254171353
H           -2.41145777770800       17.01569418021567        2.08213460624700
H           -3.99641105994947       16.41567842048413        1.54846980806432
H           -2.99637621232625       16.67260902027476        4.37823672383191
H           -4.53071937076789       15.99452550312516        3.77883493947264
H           -5.81568402314679       17.67973957151453        5.00660679661077
H           -4.34043924544193       18.50434411780853        5.50162147405248
H           -3.66348033843501       16.59611817956715        6.89406426703992
H           -5.28882498270597       17.11220347886457        7.33342145161388
H           -4.48630554305647       14.65504964686871        5.72578940964905
H           -6.14465608463715       15.29681121819818        5.70070472641678
H           -6.45849204516235       14.74280108296928        9.20097362641972
H           -7.10366365950637       15.67191348290332        7.83078102729336
H           -7.24461253195086       12.64095231379688        8.18947294298639
H           -8.57772012265288       13.77370055480313        8.44902880642785
H           -8.46160090430654       14.41752507509012        6.01980419983699
H           -7.14257774892842       13.26361522813120        5.80646751574995
H           -8.76293616866456       11.43401309560991        6.59915830575147
H          -10.04344580620729       12.65945746918443        6.50502502100844
H           -8.85067409322993       10.11431806304554        4.80431201773488
H           -9.04645266513999       10.87010404276239        3.19808965136941
H           -6.67237028360375       11.25441235435215        5.08073402551643
H           -6.69434550484306       10.17861727646740        3.69290938659920
H           -5.70146295037715       12.68784967767080        3.53885530961824
H           -7.39826734543169       13.07910632608570        3.23291940419290
H           -7.43478796704804       11.52096828791642        1.31175581842056
H           -5.77104652050206       11.00043634383049        1.69004196238287
H           -4.77256465674628       14.15350290286113        1.87222758503775
H           -4.11387276703644       12.53946966927822        1.53634701261925
H           -4.64280576888419       14.75672606607073       -0.49082596232242
H           -3.07051225894043       14.19325632406776        0.10757798597528
H           -5.04069164887121       12.68335745638873       -1.65852328508747
H           -3.43541424074409       13.29194852854587       -2.09989217763745
H           -4.12268673822601       11.00280186761666       -0.20024500833339
H           -3.32002910345608       10.88428538956852       -1.77659882613511
H           -1.67454725833616        9.70330839634721       -0.41170245332900
H           -2.40866678995403       10.20171180917844        1.12968689123283
H            0.40963520317359       10.73970776799064        0.11186371473603
H           -0.32537782506972       11.76236849494900        1.34632536314651
H            0.96513110439246       10.10317430018580        2.50459748304481
H           -0.73471863442218        9.69136716766379        2.74078145447226
H            0.64828487960256        7.69723323035922        2.29740066571764
H            1.23443323152623        8.40856123410577        0.77146629002881
H           -1.42752194429420        6.41722271782267        2.05859695907188
H           -2.13502076985301        8.05163402872071        2.10968400851091
H           -3.19674735999862        7.71129532669490       -0.07475816238634
H           -2.36602041092748        6.17335457621781       -0.27258143658988
H           -3.62645786895289        5.31052220559045        1.77555135892261
H           -4.62463847688381        5.65646142416552        0.36904966450941
H           -5.22992066605700        7.88136125747694        1.35858646595213
H           -4.31374117948885        7.44764208627287        2.82291287750003
H           -6.23406401472614        7.39524903565592        4.15791635017236
H           -7.24176972063829        7.88623452406707        2.77517198846231
H           -7.50785577170309        5.22458112010616        4.26419766325325
H           -8.49718342489053        5.76585496511243        2.90912370848786
H           -9.81281923491255        6.21946872697870        4.84018008329998
H           -9.18704656450307        7.77862642901278        4.31814736739509
H           -7.21566252907939        7.02653795555464        6.09013018096645
H           -8.65307151461630        6.32471737682035        6.85565470457744
H           -8.33915654370482        7.96092278694861        8.53318892461919
H           -8.85904188743288        9.60507499465338        8.10840073251921
H           -6.68329015730579       10.00455706359015        6.96815026102218
H           -6.13276102518440        8.38789104662841        7.41693752576217
H           -6.90480095692243       10.53876385781214        9.44648787028228
H           -6.22390839956867        8.95459391139044        9.80302944118827
H           -4.86413858831436       11.23575018046161        8.30964081720303
H           -4.21604449579052        9.57701600604726        8.36713159889151
H           -2.61990488259013       10.73150231170962       11.25504062547025
H           -2.40280322283866        9.86822232813202        9.70978405247027
H           -2.71818878664358       12.03785636232614        8.48928356348551
H           -1.31844769077103       12.04863090749774        9.56839217194799
H           -2.56468360734673       13.30720921523971       11.25390379743154
H           -4.05150069600702       13.18078822802294       10.29786924061163
H           -3.01157027345040       14.49108806651732        8.47769617091871
H           -3.07182348125126       15.40500919967266       10.00009225239115
H            0.26744886110236       16.02444142426872        9.22308619280848
H           -1.37069468987597       16.71752335810207        9.15464651012222
H           -0.65424165418240       16.78693512118447        6.91269919152098
H           -1.66473072883526       15.34495452657938        6.97132874684873
H            1.38605391524164       15.43334434225972        7.00332476282509
H            0.34418751360246       14.91206980840690        5.67450205848934
H            0.82278738199577       13.49292061872517        8.32055552072690
H           -0.55449908925376       13.09541241917685        7.27569275968779
H            0.64719816572190       10.96329334237786        7.25219556198525
H            2.19814186361540       11.56148874849240        7.88378318146715
H            3.25238770973134       11.16112438207117        5.65449206011634
H            1.70186470570963       10.62664972731968        5.01410376729248
H            3.34338482284562        9.26930932950670        7.20252614277033
H            1.70925355154133        8.76287871799568        6.75095131834805
H            3.25431883411809        7.32834737698126        5.57565545622302
H            2.54869012675118        8.43966990290032        4.37796801972668
H            6.17525639586815        8.33532326285888        3.99421319366222
H            4.86448027988174        7.14195300070739        3.85144261519128
H            3.59928962635444        8.84957475436213        2.42536149788583
H            5.03568573708386        9.87148941250172        2.48580322745831
H            4.82307078797176        7.06016139945099        1.31409060447896
H            6.33927312629185        7.95981733661901        1.43235861784243
H            5.37778878750669        8.18618816766394       -0.83167964303084
H            5.43652462237534        9.74961323211385        0.01237642285853
H            3.76977010700516        9.88570332143873       -1.95830629216283
H            2.12892309803696        9.68175272920032       -1.30654570647302
H            4.27323938928894       11.54893596248968       -0.16569483909798
H            2.67508744018628       11.29224269067191        0.52931662339662
H            3.25054125530268       12.41855092044528       -2.25941102729296
H            1.64051973554790       12.17739936557750       -1.58485672130577
H            3.78369681430507       13.94352855200107       -0.32249639435137
H            2.08565918951887       13.81175941209268        0.19551074271844
H            1.73403940078996       16.05366971078906       -0.17355197675617
H            1.69051248498827       16.58547653435007       -1.87275366951280
H            4.09472135747554       16.89832259114018       -1.92467941437477
H            4.30020894052317       16.06492801014882       -0.38516764697408
H            4.55158122735373       18.42584080200195        0.03176917290245
H            3.04786918016649       17.88348451939899        0.77543074796447
H            1.76057622706056       18.81609264762998       -1.14496706408669
H            3.28313844093145       19.35270538837831       -1.89598833370824
H            1.00688286842308       21.06315932735681       -0.86938945285008
H            2.48611995363032       21.59482199654586       -1.70299337067026
H            3.16572746959659       22.84119562914695        0.38018613705449
H            1.69170162142018       23.43166226781700       -0.39942060435099
H            1.15199914988082       23.44973816535397        1.89198468572506
H            0.44048218564728       21.92266003133700        1.34507965198392
H            2.63131381450291       20.81432427461958        2.10697731504249
H            1.57273551125805       21.45049675576141        3.39866797813613
H            3.85407485644394       22.09970636965186        3.53093627802098
