50
 energy: -87.579302690632 gnorm: 0.000198538893 xtb: 6.7.1 (edcfbbe)
C           -1.14195340919409        1.27523250753156       -1.41036344920889
C           -1.85765244130747        0.12562598266139       -1.20954479785147
C           -1.31929131244704       -0.93334554116083       -0.45333989079923
C           -0.02014330372944       -0.80090108515603        0.10390769922267
C            0.53379656230470       -1.85342199683579        0.85968515340898
C           -0.16959191204668       -3.00830346899990        1.06405477841776
C           -1.45158032930822       -3.16019824974877        0.52685514707982
C           -2.01972494665701       -2.15081535162343       -0.21431903838084
N           -3.28061544896315       -2.36097796699899       -0.71138303128321
C           -4.19404139442950       -1.92485813512540       -1.33940734411038
O           -5.17601272619272       -1.68824915493390       -1.90762791041099
C            0.68995805502256        0.40969345220070       -0.12440319364858
C            0.13817505729531        1.42623521752086       -0.86972067219743
N            1.94226414099294        0.51068416737961        0.42411379916472
C            2.92465434134864        1.16552571292615        0.57894244315627
O            3.97201672779300        1.57768709341494        0.85655761691714
H           -1.56347830753090        2.08065978663124       -1.99259562974971
H           -2.84588534083250        0.02495513824752       -1.63415628989111
H            1.52362344313614       -1.72620772376497        1.27038639017222
H            0.25797045200327       -3.81344597793225        1.64201590137311
H           -2.00721342531579       -4.07070222347305        0.68900796661845
H            0.69861791163646        2.33509584371814       -1.02059075190239
C            1.96597138868284        6.42706272348486        5.74416739393148
C            1.84423168837152        6.13496026373560        4.40642393380614
C            2.91368092865583        5.57883352865429        3.70204242803638
C            4.10051508992285        5.32482284439185        4.37070320319963
C            4.22282543532405        5.61882214110727        5.72190824985139
C            3.16045507792819        6.17094105469733        6.42032602951006
O            3.17551254298967        6.49708995051299        7.74697132988398
C            4.35370961433226        6.26341945502610        8.49265199695087
C            4.06635087950018        6.72922538392353        9.92141799509924
O            3.84845177484702        8.11220043815597        9.98435647774811
O            2.68859104448972        5.32776267597887        2.37740770103721
C            3.72509690392697        4.74604197627863        1.60889396860199
C            3.15507794722932        4.54298856773523        0.20616630070348
O            2.03549323681431        3.69149439396023        0.22913795872713
H            1.14281214623808        6.85595774312142        6.29301673336549
H            0.92379082387583        6.33192697223741        3.88005467089247
H            4.94755706112364        4.89640847905625        3.85922748435284
H            5.16095956474195        5.40713267299962        6.20974793649456
H            5.18996054016244        6.84131991298130        8.07749851441278
H            4.61111660141992        5.19645597962223        8.49203977645240
H            3.19362842564274        6.18022603337549       10.30241136906364
H            4.92737092078495        6.51996959641397       10.55913032070887
H            3.16072653911362        8.32625687748973        9.34173015034483
H            4.59940555814566        5.40727976531921        1.56478706363801
H            4.01908248599619        3.77727781406370        2.03015984621021
H            3.90104309332976        4.06882132042953       -0.43349818748173
H            2.87901706413516        5.51896977683589       -0.21634557782494
H            1.45619847433347        4.01367508645458        0.93277656204342
