50
 energy: -70.726011757430 gnorm: 0.000145201078 xtb: 6.7.1 (edcfbbe)
C           -0.38104390602953       -2.42246970320553       -1.02184535087846
C           -0.09657384677345       -1.09362241864639       -0.30698849446836
C            0.52735410554237       -1.43096599241692        1.05154442712438
C           -1.42408010630709       -0.34619266924176       -0.12311954447509
C           -1.20970430246651        1.10112899005040        0.32021345467047
C           -0.38337563718343        1.86142898271793       -0.71377872513411
C            0.99732557613383        1.22460070642318       -0.92489865109806
C            1.66362599778049        1.88348161696646       -2.14056473395860
C            1.88604122890306        1.51935001038057        0.30472592149836
N            3.17349519432321        0.93644144486439        0.23433445734719
C            3.80205120519562       -0.03923423562121       -0.00853754707638
O            4.59094112218968       -0.87079360437801       -0.20191210089230
C            0.83723070930570       -0.27536905446341       -1.21815303798636
N           -2.46363478783161        1.76009811598409        0.47895092232638
C           -3.49981967311932        1.75206586778491        1.04779499270313
O           -4.56453345319542        1.94044675381342        1.48668538983690
H           -1.08015832120761       -3.02266920026608       -0.44414204039021
H           -0.81226566534614       -2.25529627466633       -2.00665222330484
H            0.53897906042428       -2.98957747250662       -1.14333548368760
H            0.50019163549324       -0.59826982040207        1.74586639287916
H            1.56022802975454       -1.74955762695499        0.92982751834897
H           -0.02436813328943       -2.24866211395035        1.51093549930516
H           -1.96953634819169       -0.33814858749247       -1.07012873451932
H           -2.04143434191114       -0.86090700163607        0.61530592037952
H           -0.70638431084802        1.12968520231633        1.29091285066260
H           -0.92466474466153        1.85650621733073       -1.66227740924758
H           -0.27215944571849        2.90059363068068       -0.39897218530456
H            1.75797296847801        2.95651184289543       -1.98863991143047
H            2.65761040092233        1.47110144179298       -2.29793146453481
H            1.07744377899238        1.71797129572355       -3.04133609847293
H            1.40787488564053        1.19262306607218        1.23016603809281
H            2.04563878555840        2.60000545298165        0.37152722302886
H            0.44162573748079       -0.35246255916597       -2.23416583877304
H            1.82284598532900       -0.74643277535474       -1.22913492763592
O           -3.55583473177383       -0.38284057244321        2.70457285958014
C           -3.69176345585367       -1.07148256415589        3.93592386511357
C           -3.67195433558503       -0.14621890907063        5.15676053612691
C           -2.28341320083799        0.35839525133684        5.56139408107095
C           -1.63702135727450        1.32403978479132        4.56209278549187
O           -1.10188577651600        0.68126776321008        3.43352462955932
H           -4.30665697234450        0.21844901275580        2.61349146366003
H           -4.62826150421187       -1.64414584063887        3.92930422779630
H           -2.85864976293924       -1.77767683051830        3.97827683936745
H           -4.09216070588808       -0.69932210227376        5.99903561861781
H           -4.32658173218944        0.70845680340501        4.96127436672457
H           -2.37521526627274        0.87593511613340        6.51817173026731
H           -1.61217986780154       -0.49171639164567        5.70104551534343
H           -0.79433478442370        1.83068482890634        5.04032426948212
H           -2.36902404047360        2.08765526200853        4.25684422967186
H           -1.83416644063574        0.19704048523934        3.01270225470329
