67
 energy: -90.865524273211 gnorm: 0.000193993381 xtb: 6.7.1 (edcfbbe)
O            6.29118131120904        0.23929742375730       -1.74679923805799
C            5.58663671928884        0.08379516355800       -0.83474083597399
N            5.08776101861487       -0.12285494673357        0.22267234358552
C            3.82106364960999       -0.13589411194447        0.87567304111902
C            3.15860581240700        1.23989981657030        0.77382490862945
C            1.78112278174520        1.22683194364528        1.42582600558213
C            0.87926852334168        0.18352575677013        0.76276548484580
C            1.53252320006661       -1.19123454670418        0.90360332000748
C            2.91484006213354       -1.20364023360359        0.25812581440040
C           -0.52416741210132        0.23793060714406        1.37500980417339
C           -1.57458257120187       -0.67348424052174        0.72867271874068
C           -2.90416040450266       -0.51933156933619        1.47342355816676
C           -3.98954326126922       -1.40944243577962        0.87766735262333
C           -4.19839638363642       -1.11110680110945       -0.61168927897540
C           -2.86834822556641       -1.24200136010351       -1.36243217313098
C           -1.78736354076675       -0.35450008608234       -0.75241319218592
N           -4.77210075466754        0.17669687317292       -0.80353645342109
C           -4.57326062143402        1.33883492873540       -0.66176827064896
O           -4.57647875091600        2.49968097206218       -0.61412939743594
H            4.02398346208312       -0.37788079106536        1.92564050607874
H            3.79593380537699        1.98980014035382        1.24659273209863
H            3.06575973751176        1.48717720274599       -0.28460503936191
H            1.87837927115047        0.99915560853417        2.49012044701050
H            1.33071876224006        2.21768545666924        1.33741903747150
H            0.81545233725308        0.42976519427602       -0.30126544670538
H            1.61706866754912       -1.44286063787396        1.96371201619684
H            0.91740785841920       -1.95469146768010        0.42546895372557
H            2.83097813949931       -0.99374939839665       -0.80940840321260
H            3.37673191932672       -2.18590227768117        0.37564500940273
H           -0.88431535169502        1.26870331043733        1.31558023570923
H           -0.45050665896072       -0.01963651410212        2.43489341785825
H           -1.25184820845967       -1.71592591043833        0.81891408111991
H           -2.76861662182922       -0.77220317128225        2.52685615953411
H           -3.22483124837827        0.52453972366879        1.42434381567403
H           -4.92884005494404       -1.26199259883580        1.41393787568079
H           -3.70266033933815       -2.45816522309148        0.97581130952460
H           -4.92615380220872       -1.81759071996427       -1.02839097975690
H           -2.55477672810372       -2.28667151127932       -1.31456354297892
H           -3.01604808775360       -0.97985177084830       -2.41207371520266
H           -0.86144146804555       -0.50673506899090       -1.30839208964598
H           -2.07261554902161        0.69559017548833       -0.85724401130582
C            2.37351090161172        3.24111480871228       -2.71090609879847
C            2.32134039097237        4.66948051754076       -3.24398311912744
C            1.07184871073420        4.87914949815885       -4.09805432809137
C            1.05606655836534        3.86889357117885       -5.24542315015209
C            1.10109962207485        2.44063463690311       -4.71226244440358
C            2.34901619757685        2.22743870910735       -3.85570136190823
C            2.39593783850047        0.79437102006600       -3.31604238475464
O            3.54828776739077        0.52288482428574       -2.55179132645093
C            1.00707503362042        6.31361535035967       -4.63513492134496
O           -0.16701135476454        6.57764633128091       -5.36410995459346
H            3.27845263855989        3.10060944321552       -2.11618795366637
H            1.51349632227185        3.06437311715549       -2.05974405568989
H            3.20804530667983        4.86757487055536       -3.85027186486173
H            2.32499449552559        5.37351612568480       -2.40905506799731
H            0.18694598823115        4.70904949555379       -3.47034748894532
H            1.92258178245223        4.04618938071599       -5.88629988735929
H            0.16064520742260        4.01687550345147       -5.85135268593726
H            0.21227219054332        2.24654846423141       -4.10662893887538
H            1.09698724307753        1.73433572336101       -5.54538656566708
H            3.23624283304566        2.38672581522044       -4.48168875067094
H            2.31519232312519        0.08249083098461       -4.15084437426881
H            1.55139930562088        0.62391005689595       -2.64189388692892
H            4.32956745792247        0.66884059629623       -3.09891256000756
H            1.82791736162320        6.49049720904902       -5.33424454146554
H            1.10726117870292        7.02325025305874       -3.79960601346673
H           -0.92667216217894        6.41108821133262       -4.79455286011074
