373
 energy: -492.757260059430 gnorm: 0.000212595725 xtb: 6.7.1 (edcfbbe)
C           -3.69877893039996       -1.79122428883758       -1.40065039289991
C           -2.36169745516037       -1.19909566827716       -1.08230721955856
C           -2.25835200747811       -0.08061515970776       -0.24572001208543
C           -1.03194589777252        0.50938325585770        0.01975867658113
C            0.12033657052342       -0.02252189632905       -0.54391691742005
C            0.04799536276538       -1.15695569025812       -1.34736109465029
C           -1.18744199327755       -1.72251393512110       -1.60644056574359
N            1.31584723985560        0.59971688414865       -0.27713375090077
C            2.42810562267566        0.84181018334437       -0.63095581425201
O            3.52485833633260        1.18516695330343       -0.75974952268369
N           -3.36675883977143        0.49298319520780        0.32512349596864
C           -4.52842472318423        0.40093774307947        0.56155556180504
O           -5.63826687443979        0.50431744270998        0.88446335807908
H           -4.25619544704738       -2.00630406963658       -0.48867885501549
H           -3.58933112191172       -2.71072590138501       -1.96935100023922
H           -4.29331086075332       -1.08920117711007       -1.98758666307681
H           -0.98364002758432        1.36134494908866        0.67898206402920
H            0.95292137150414       -1.56898340554796       -1.76646531755000
H           -1.24388599187099       -2.59571071836534       -2.24129990068109
O           10.38719259232169      -10.14056882203922        0.81188985011083
C           11.36250580715056      -11.13405960964032        0.65860159112456
C           10.82496448528089      -12.56547891485103        0.78920041749300
C           10.15313104658875      -13.11619984895215       -0.47370529986329
C            8.72981495812452      -12.60390863549813       -0.71991693457335
O            8.62993220129991      -11.22694443985069       -1.02003072798054
C            8.97702512304672      -10.86431155283513       -2.34252023308911
C            8.96388952132116       -9.34262607614100       -2.45502238903623
C            7.58002303511421       -8.76488828645557       -2.17807130895439
C            7.54448848105756       -7.24541194810394       -2.37065645073695
O            6.29181441640523       -6.68805262432499       -2.05763162856113
C            5.28423708204624       -6.86272804457240       -3.03616972123180
C            3.93341705738773       -7.01845924302254       -2.34395612070500
C            2.78547897326842       -7.03292543522409       -3.34915590381749
C            1.42569754943004       -6.89753456998779       -2.67461177247008
O            1.11903218728541       -8.06166063717988       -1.94585496134298
C           -0.13380304758116       -7.96720866202787       -1.31109478418512
C           -0.43535978235390       -9.23937415881795       -0.52973583286479
C           -1.79440605421110       -9.12879673712715        0.15568432995219
C           -2.05469134908556      -10.27837781800025        1.12066558987526
O           -2.13550276488659      -11.49218288225233        0.40885078425847
C           -2.57762222637260      -12.56585314074241        1.20619314262966
C           -2.46609648109061      -13.87767996677939        0.43315728112302
C           -1.05125619016867      -14.45124326429768        0.41411001796121
C           -0.08416503273184      -13.60339613213926       -0.40305739831637
O            1.20891957151736      -14.15605980969756       -0.28046753606358
C            2.20068659878932      -13.37946370251608       -0.91222776491086
C            3.56414809302676      -13.91174500750932       -0.48641336366350
C            4.73301867400219      -13.15619874073135       -1.11746271728570
C            4.70246523117702      -11.65034373992318       -0.80408313844555
O            4.34898058575565      -11.36682595513296        0.53170062282094
C            5.38787230059881      -11.46829058465916        1.48408568649434
C            6.34545326641533      -10.27565864417525        1.43758732920893
C            7.11824088193318      -10.08121532162441        2.73879961244338
C            7.91222783180692       -8.77818237698831        2.68667973987631
O            7.00893775702701       -7.72121016962337        2.45713772230461
C            7.63157910052603       -6.48826378362709        2.17571739153823
C            6.54146781282846       -5.44413844321263        1.96440733068938
C            7.09182067136606       -4.06905338570134        1.60588911207208
C            7.70757855959069       -4.03072568573082        0.21068501834415
O            7.85973746148017       -2.68460117312399       -0.18200593705628
C            8.48729570487358       -2.54514828600532       -1.43151056692779
C            8.55480253330413       -1.06976724290152       -1.80780974693596
C            9.36449690280912       -0.26048719016576       -0.79717262473024
C            9.49818474690614        1.19655620483207       -1.22958638091476
O            8.21374948964754        1.74174213205448       -1.39093835054985
C            8.18697271278398        3.04394307998060       -1.92035343047958
C            6.77448687391630        3.31599580964498       -2.43238014337590
C            6.45927959651191        2.40830638607346       -3.61740123636947
C            4.99248808694583        2.45079198961798       -4.02796670468699
O            4.78350900761065        1.40146420253572       -4.95358391459651
C            3.43763691148922        1.16483809176538       -5.29151632277079
C            2.57558985921381        0.71660511081808       -4.10195130071270
C            1.53192090109762       -0.33805975922584       -4.47440313257991
C            2.13067294186241       -1.74379908232669       -4.44149754761424
O            2.67062558577879       -1.97782047409731       -3.16106901165940
C            3.28319866453254       -3.24184953112818       -3.00301118933271
C            4.39606555234003       -3.17052306799771       -1.95815233074206
C            3.96188321493840       -2.61179869781020       -0.60507722714641
C            2.89056468193546       -3.42160389579520        0.11753602509412
O            3.30185744869769       -4.75377632210050        0.32848842102409
C            2.44205011027325       -5.44574367548425        1.20303342781976
C            2.88872996032413       -6.89746416599866        1.32856062640386
C            1.93149226571254       -7.71319853079509        2.19243532306725
C            2.35274322988870       -9.17928840832214        2.24021185656569
O            1.23616514469365       -9.96453675171703        2.62237767293552
C            1.49996869122696      -11.34810916466179        2.68053085633511
C            2.19435517692607      -11.78777341267136        3.97451671060185
C            1.40953073333403      -11.33031006423678        5.19914911284397
C            2.05959743641769      -11.79029989462655        6.49764784635205
O            1.29626149285887      -11.28102774743076        7.57545259487082
C            1.70609863715630      -11.69679014706313        8.85656527828964
C            1.55394052305088      -13.20457857178269        9.10896090885294
C            0.17743711372786      -13.70049790974625        8.66589466867934
C            0.18566217478584      -15.19258353884468        8.31905730336841
O           -1.00409508509809      -15.65260618509669        7.72831471142718
C           -1.24671019721765      -15.14567425046108        6.42803101610491
C           -2.26113087539511      -16.04799368840008        5.73378133167253
C           -2.67573724798395      -15.51469625544074        4.36311366143260
C           -3.52531933937476      -14.24809844513257        4.43172034949897
O           -2.70924182027236      -13.11877117022018        4.65347048425320
C           -3.45230802649163      -11.93198729246791        4.80360189806423
C           -2.50698891711128      -10.76277501308248        5.05619319616265
C           -3.27817607955121       -9.44939218832922        5.11677424291993
C           -2.37295126697684       -8.26518641671230        5.43326936861383
O           -3.16835465522072       -7.10095652508433        5.46381791586824
C           -2.48249780642833       -5.95375795301255        5.90393991812166
C           -3.41492480530439       -4.74524617094913        5.92526740061536
C           -4.56283849824697       -4.85806382557752        6.92992032983696
C           -5.73905106889002       -5.64929029032105        6.36354991574758
O           -6.27547010052247       -4.91246804322066        5.28332599053048
C           -7.21442345629524       -5.59180725473255        4.47333491396328
C           -6.64521277502149       -5.94528703766380        3.09526190731993
C           -5.57335615220157       -7.02991071665553        3.15878852606366
C           -4.94088173635005       -7.29527124984001        1.78937570454768
O           -4.37842379569589       -6.16596856460957        1.16604145110404
C           -3.26676742035269       -5.59100585881696        1.82307878993389
C           -2.58327261873292       -4.67270246222320        0.81259195750798
C           -1.47806694217898       -3.79568802754257        1.39554154103588
C           -1.99026326795455       -2.75484844739016        2.40517210511645
O           -1.25349207485735       -1.55660595784845        2.41075465500374
C            0.10206003455249       -1.69490488190883        2.79252372996774
C            0.66696199159087       -0.31255606931983        3.11266083002447
C            2.18774496835868       -0.31584560330248        3.24967249299404
C            2.66087604803364       -0.92259782662331        4.56794041691550
O            4.01657583005623       -1.28800257984629        4.44503779634016
C            4.53327185083276       -1.89048612055400        5.61178895964325
C            5.76226343420351       -2.71303666295609        5.24296888135271
C            6.39762453884527       -3.36696997179328        6.46722454401137
C            7.34359033064466       -4.49943254082917        6.05057523634860
O            6.70137520506151       -5.52192912256679        5.32800161033845
C            5.97049365815036       -6.44355322734246        6.10751897410530
C            5.13137559635623       -7.30060113442335        5.16343652174769
C            4.58686074271769       -8.56596347219139        5.82154007839290
C            3.50747074228327       -8.27669641512818        6.86283265617472
O            2.42856996378206       -7.63044316519613        6.22209831095241
C            1.22643132938088       -7.62997515650996        6.94797745050479
C            1.23513531852931       -6.73707302404692        8.19848390791567
C            1.82585545889657       -5.34901195346442        7.95000452095203
C            1.13321818476667       -4.59529414069905        6.81107640240151
O            1.54030764770202       -3.24204458231903        6.75073908073875
C            0.76915689529206       -2.33619907069615        7.51340153047795
C           -0.48208401346953       -1.87584491666851        6.76218622322401
C           -1.33339046837242       -0.90436193722228        7.57105919435726
C           -2.54815289250070       -0.44373668845280        6.76983050042390
O           -2.11478320177876        0.28658037559107        5.65034791210844
C           -3.17599803031236        0.71087656703624        4.82489645415682
C           -2.62492103660154        1.50724275514222        3.64800417111272
C           -1.87497767962515        2.74933887410578        4.12200519845907
C           -1.36003353708959        3.60493660099122        2.96802588950096
O           -0.38566407079634        2.88252111841675        2.24348599012158
C            0.54777625302781        3.65790898817362        1.53075170617413
C           -0.05150761227580        4.36824419250593        0.31006791930918
C            0.99908864934367        5.03408492841061       -0.58319421160504
C            2.02647323606939        4.06357550702858       -1.17547754997084
O            1.44649111728078        3.01098965810676       -1.90972325652012
H            9.65682669647338      -10.35200626533393        0.20207705028628
H           12.09495807809502      -10.95072307629160        1.44989408423915
H           11.87737878679449      -11.02583962207193       -0.31057093889456
H           11.66779679555370      -13.21507507031203        1.03312281015037
H           10.12293676941009      -12.59670822269367        1.62497681802364
H           10.78117103249529      -12.90033643241769       -1.34116634756526
H           10.08262969949022      -14.20238628499452       -0.38532042881009
H            8.13632279015009      -12.73577520013995        0.18956938542577
H            8.26829384299098      -13.18729499430771       -1.52943784558116
H            9.97529579734288      -11.24399280218753       -2.59830722416928
H            8.25308871483239      -11.31041189295102       -3.04176756470910
H            9.28715399432346       -9.07222840442333       -3.46257839043980
H            9.68067139290886       -8.92871213423958       -1.74383398637555
H            7.28512053835372       -8.98129492393115       -1.15170536164550
H            6.85351242129434       -9.23706734866782       -2.84388189526903
H            8.24785638626938       -6.77262103463883       -1.67966703724063
H            7.83946803788550       -6.98539023103217       -3.39912386278069
H            5.26996155250404       -5.98019947061249       -3.69687012068765
H            5.48823663065544       -7.74116011749042       -3.65972629164265
H            3.81228554955324       -6.19073831692928       -1.64386312621036
H            3.93172267356022       -7.94485074836243       -1.76900777757056
H            2.79920546244650       -7.96192742994808       -3.92151689503824
H            2.89977354543463       -6.19982486163133       -4.04623875772524
H            0.64648826213455       -6.72672663701669       -3.43802322955477
H            1.43016162854931       -6.02688571598361       -1.99892161284591
H           -0.92055475302031       -7.79420929162368       -2.06563553986210
H           -0.13645979200540       -7.09998407754883       -0.62823226088005
H            0.34254809287799       -9.39376189528879        0.21687177457118
H           -0.43121656809874      -10.09298897428191       -1.20686995973245
H           -2.58749225605197       -9.10846499200650       -0.59378125873105
H           -1.84011594379423       -8.19674366597632        0.72281128130678
H           -3.00437392741222      -10.10470671710481        1.65507618427214
H           -1.24661245093411      -10.32666544882699        1.86623774268815
H           -3.63094118456169      -12.39042020329198        1.48779351600904
H           -1.98913337024164      -12.62306869358309        2.13414407015845
H           -3.13275100203629      -14.60554806094044        0.89946438837329
H           -2.80733363218672      -13.70121837824648       -0.58784030081936
H           -1.06981636056625      -15.45919118802612       -0.00428164387866
H           -0.66656938222275      -14.52277648922809        1.43315870055461
H           -0.39301623569974      -13.58894129694638       -1.46050532004887
H           -0.08637928743399      -12.56812195367479       -0.03868192088430
H            2.09466559654028      -12.32873783260586       -0.60911782930541
H            2.08654404598503      -13.43380419650344       -2.00790221675654
H            3.62367534876000      -14.96869102583996       -0.75127348242886
H            3.62518569742364      -13.83480201849910        0.59994691080209
H            5.66352023122336      -13.59157722647640       -0.74596089954204
H            4.71880124112648      -13.27689121885232       -2.20224394889488
H            5.67004916902399      -11.20132081569962       -1.05716866818274
H            3.93163158035534      -11.16457844576380       -1.40828476546692
H            5.93205661560356      -12.41597282506521        1.37066758154774
H            4.87273965950408      -11.48802120553022        2.44848519108260
H            7.05574287619983      -10.39287610532365        0.61845070562667
H            5.75403845792436       -9.37612802981130        1.25838943776422
H            6.41814223666896      -10.03262733225309        3.57483177302701
H            7.80785835314606      -10.90936908355711        2.91024825882816
H            8.66049146395530       -8.82501941986472        1.88307861202971
H            8.44864796973338       -8.61832262333251        3.63580234992863
H            8.26021496039707       -6.59395286327925        1.27840273803005
H            8.27633512721926       -6.19358938224651        3.01750699360321
H            5.87344178566497       -5.78431708040840        1.17201618769593
H            5.97620348408016       -5.37499471347925        2.89333068112170
H            7.83309425711706       -3.75364582931070        2.34170560503305
H            6.27767493695472       -3.34439182313582        1.62653795853677
H            8.69154760292289       -4.52763947727652        0.20361763965173
H            7.05524404251580       -4.55978064458758       -0.50144598236425
H            7.92436538246696       -3.10433421039150       -2.19768333033067
H            9.50484320494373       -2.97292756465986       -1.38845541787639
H            8.99996025660154       -0.98292355497691       -2.80141037273429
H            7.54443795017163       -0.66449118260701       -1.84003067877616
H           10.36460468841510       -0.68482923786005       -0.68663715764186
H            8.85688325806596       -0.30797053783288        0.16502603647102
H           10.06709503853663        1.76716119295284       -0.47630197074169
H           10.05141990419905        1.25746882799870       -2.18301107752488
H            8.90956336555487        3.13193669231815       -2.74797519940895
H            8.47033197693267        3.77690364551912       -1.14677621999292
H            6.68479396721043        4.36687776295679       -2.71312600825599
H            6.07418674379856        3.10649263122723       -1.62340755103345
H            7.08293211574124        2.67140622295006       -4.47389779307379
H            6.69044538100687        1.38126420540835       -3.33482836543849
H            4.73376362673353        3.41715665838661       -4.49161741756100
H            4.36142177432003        2.31789302986583       -3.14163893639637
H            3.48756726392093        0.37314647928884       -6.04452915495174
H            3.00060642627181        2.06121481576705       -5.76029261885210
H            3.23582496750749        0.27493089450999       -3.35459522435140
H            2.08290664746778        1.57889618267072       -3.65273836133976
H            0.70931823387312       -0.29605243604451       -3.75955372812080
H            1.12588893807740       -0.14819611324748       -5.46959511097390
H            1.35341960754749       -2.49201997134068       -4.67055905117488
H            2.92360758504577       -1.83696604461012       -5.19962689882171
H            3.71906977463824       -3.56415405843291       -3.96008332476102
H            2.52411423362400       -3.98455064514344       -2.71600162972734
H            4.80487102006204       -4.17092485017141       -1.82004527546173
H            5.18545674442301       -2.52214798597422       -2.34260790465016
H            3.57573619638471       -1.60127499785956       -0.74178642516373
H            4.84631001633534       -2.55758082096585        0.02999258047676
H            2.69177311869927       -2.94202825985782        1.09004864083556
H            1.94483378715427       -3.41378737982864       -0.45061286530655
H            1.40843347832318       -5.40587200548050        0.81391367843729
H            2.44179931365931       -4.95506097381824        2.19037003705971
H            2.92649375966850       -7.33049550787342        0.32894416480154
H            3.89368056482399       -6.92735589445412        1.74993597621577
H            0.92315014919110       -7.66383306711840        1.77624602062648
H            1.89530927799867       -7.31580412452558        3.20849367835460
H            3.18023791063947       -9.30324058504668        2.94905506024717
H            2.70653400122466       -9.51116387406170        1.25316493464079
H            0.52204778185605      -11.83582066900112        2.61931692878963
H            2.10458336396148      -11.65310685592186        1.81609089134046
H            3.20353495100170      -11.37250010869558        4.01349486777716
H            2.28096639259094      -12.87612594284541        3.96080955694529
H            1.33770077184484      -10.24224615516414        5.19666274149817
H            0.39610400833533      -11.73323773960490        5.15765310671398
H            2.08622862912315      -12.88745581401734        6.52210385089568
H            3.09752690914465      -11.42638537542516        6.56798455871415
H            1.06028591935932      -11.13994261446443        9.54091371654764
H            2.75206059900274      -11.40083706659778        9.03801554217936
H            1.71831606983142      -13.39541374628623       10.16972779519946
H            2.33013929070023      -13.74108587716479        8.55838322570355
H           -0.56571042775535      -13.51063636872675        9.44132229116563
H           -0.11747163451120      -13.13684967132166        7.77936266861467
H            1.03487758683994      -15.40225578019859        7.64618284324807
H            0.30767495942367      -15.79283030062310        9.22504434752116
H           -0.30983853370820      -15.12892367024927        5.85098790733205
H           -1.63690280554399      -14.12281536302245        6.47357640506866
H           -3.13607592990669      -16.14281709377864        6.37882135307594
H           -1.82523965564332      -17.04230489313709        5.62142147171453
H           -3.25722060775200      -16.28200409394086        3.84958217813849
H           -1.78969564660714      -15.29936701619006        3.76474479035563
H           -4.26832815136191      -14.33585816617564        5.24017648531596
H           -4.07446820522542      -14.11538035204659        3.48506232201085
H           -4.04698433911160      -11.74654855439896        3.89396295584110
H           -4.15753649358984      -12.03689822056500        5.64446590526923
H           -1.76826533877962      -10.72305980527448        4.25493936332762
H           -1.97441157828460      -10.92988964008575        5.99381120365594
H           -3.77209109412693       -9.26253812794805        4.16199314448741
H           -4.05244693759211       -9.50518417576495        5.88470664834582
H           -1.88481525825909       -8.41339491706391        6.40904983498460
H           -1.58321478330343       -8.16949607281081        4.67189512499017
H           -1.63128655789451       -5.75100977351519        5.23156260531537
H           -2.07683103093116       -6.13409812926070        6.91437539624972
H           -3.84423050885133       -4.59678084420794        4.93454667208198
H           -2.80906138554114       -3.86974321065520        6.16570913883175
H           -4.92100720954484       -3.85612971675930        7.17196420869282
H           -4.21934902126593       -5.33579415597599        7.84873747441716
H           -5.39669514694039       -6.63724355583802        6.03837912740805
H           -6.50867142067431       -5.78222964884495        7.14203443755651
H           -8.06472547554849       -4.91118639265495        4.34162161448158
H           -7.57437185895220       -6.49694706543755        4.97703236439134
H           -7.46579617706302       -6.27517736688125        2.45424962280383
H           -6.21811765278000       -5.04255597169547        2.65679574614557
H           -4.79199388597651       -6.74039340836537        3.86067436995063
H           -6.01390766135146       -7.96541330648920        3.51314033326733
H           -4.17504504897537       -8.08063633100482        1.89523210652665
H           -5.70219233122817       -7.64127811632816        1.08426260437947
H           -3.59247092161804       -5.01273534333381        2.69748342996852
H           -2.57837890291222       -6.37695505029898        2.16932890800549
H           -3.35694063794586       -4.04370925588884        0.37251993144074
H           -2.17206594838736       -5.29234360969412        0.01243703158270
H           -0.71523856924144       -4.42325627336554        1.86211794209043
H           -1.01172807151631       -3.24891572356588        0.57273826284408
H           -2.00716681242063       -3.18609391614154        3.41858805234088
H           -3.00566798613836       -2.44763652619508        2.14046541870296
H            0.17357772942480       -2.36248604566595        3.66309569271741
H            0.67821119444719       -2.14458650646174        1.97047600350992
H            0.20337246633588        0.06446846863662        4.02546773967315
H            0.38373760428540        0.35713885466498        2.30327094597820
H            2.63638538836232       -0.88708290364727        2.43481627754378
H            2.56298248155808        0.70512848272448        3.17445257332765
H            2.53429652705500       -0.19786069689645        5.38855350413510
H            2.07132159059589       -1.81537643155145        4.81773818749500
H            4.79487835309976       -1.11347789650487        6.35030833407661
H            3.77003008524825       -2.54129024513718        6.06220535935200
H            6.48355523666491       -2.07194307050564        4.73548448767100
H            5.45966314352756       -3.49108900890288        4.54118767418835
H            5.61034239741669       -3.76811851767051        7.10962272081334
H            6.95879785806906       -2.63502221146262        7.05033982238312
H            7.84768843134192       -4.91600131311744        6.93656659550773
H            8.10295253271081       -4.10402451826849        5.37002244674474
H            6.67117323728086       -7.07602390003171        6.68127088077940
H            5.32828836714706       -5.91818201805933        6.82655224572522
H            5.75892873931360       -7.56701024952105        4.31180949700105
H            4.29508163244536       -6.70955293658706        4.79112527196314
H            4.14309195595893       -9.19485696748853        5.04829740495281
H            5.39639179409476       -9.12289225847649        6.29965020015137
H            3.91701246906303       -7.65084274604944        7.66870999015546
H            3.15580699718676       -9.21526605965498        7.31448207342835
H            0.96234365064297       -8.65774219679303        7.24453444738552
H            0.47646250186040       -7.26898075805111        6.23992229146820
H            0.20426298869010       -6.64578762607771        8.54839930665667
H            1.80962044926518       -7.22476267320779        8.98915169583025
H            1.74503485973064       -4.76068238116724        8.86786022991151
H            2.88453831777975       -5.43502565804632        7.70373458479204
H            0.04418647594176       -4.66743275265731        6.92154689944475
H            1.42064895624695       -5.03629457180784        5.85348585994224
H            1.42396406693519       -1.48124526986030        7.70337150748566
H            0.48954610437351       -2.77979541537827        8.47881375284849
H           -0.18108171593823       -1.38868300262573        5.83574291737509
H           -1.08219110170256       -2.75121693725357        6.50145214305575
H           -0.73727209693574       -0.02895213867894        7.83180761311581
H           -1.67846013915443       -1.37586204925926        8.49382228885264
H           -3.14193505375822       -1.31465931180598        6.44485306069835
H           -3.19889442252800        0.18530650647025        7.40069978673138
H           -3.73176309852271       -0.16451432814751        4.45390098883061
H           -3.87421483397285        1.33051673419974        5.41318905052719
H           -3.46122775508500        1.79575552164755        3.00840329300168
H           -1.95513259279595        0.86629480836673        3.07733907090354
H           -1.02993726272193        2.43410226009270        4.73345620558752
H           -2.53555867050849        3.36693326897966        4.73505244661293
H           -0.91355870923230        4.52730333860494        3.36797865107665
H           -2.19574093785426        3.88471015789228        2.30864483535052
H            1.31088124169618        2.93963278999950        1.22121341559489
H            1.01433911263880        4.40156969543142        2.19524657160759
H           -0.63401691610680        3.64448916954715       -0.26706651269458
H           -0.74783611590942        5.13786859412712        0.65117256250278
H            1.54112529272592        5.78913567944521       -0.01132741021727
H            0.48025162696818        5.53721069924455       -1.40199975536052
H            2.66809015163717        4.59578481834805       -1.88224763400393
H            2.66618624689304        3.66121470688208       -0.37865412172926
H            0.75107598395165        2.61670450393533       -1.37112108215691
