47
 energy: -67.551799618612 gnorm: 0.000265087633 xtb: 6.7.1 (edcfbbe)
C            0.36730211986557        0.62256412412435        0.31064595081172
C           -0.19700986463651        1.03700386040815        1.66661360569342
C           -1.61618014648331        1.59378912121557        1.55532995370277
N           -2.56634115155947        0.61200130545887        1.17722283331792
C           -2.74181624167673       -0.50186200865027        0.81425723585408
O           -3.16386149234644       -1.52051274625462        0.44067026381644
C            1.68613098223644       -0.12814787192131        0.46731480447009
C            2.27972977659559       -0.55481705542142       -0.87620665443560
N            2.69360130990100        0.53999430533641       -1.67756142878864
C            2.49564000633771        1.67391621668450       -1.96382933897352
O            2.47040118676617        2.76112485677691       -2.37128679948038
H            0.51162182908241        1.50792065403499       -0.31432526138234
H           -0.35102539045135       -0.03192266419428       -0.18812611044427
H           -0.21733432852032        0.16422691347090        2.31951349036200
H            0.43976929594035        1.79935249163112        2.11875253603165
H           -1.94092882188585        1.99965020862582        2.51901785471630
H           -1.65733685008188        2.39777932678683        0.81218002524434
H            2.40837625317704        0.49815670817885        0.99585426801316
H            1.50815656288783       -1.02661993309762        1.06006897761696
H            3.16720272596648       -1.17431113706971       -0.71682199983869
H            1.54602999521899       -1.14178399439327       -1.44052716635114
C           -2.58192831094819       -1.50822682561200        4.38680245925648
C           -3.89213341758474       -1.64610405497539        5.15609556625011
C           -3.69233601940150       -2.49799085274028        6.40893451567536
C           -3.13926362739010       -3.86911663455085        6.01968683304238
C           -1.82882743622173       -3.73080875969614        5.25154741419142
C           -2.03211050738666       -2.88093507700050        3.99772816172913
C           -0.72526360056278       -2.74581957122860        3.20930001728576
O           -0.89264395635184       -2.09862254874988        1.96872050279597
C           -5.00353330562199       -2.64335570747603        7.19017177034101
O           -4.85235213344988       -3.35351670223890        8.39565131197174
H           -2.74026905635632       -0.90859892924053        3.48893173615960
H           -1.84582137268678       -0.99293755137507        5.00951657882000
H           -4.64298613681703       -2.11578544914268        4.51714955413125
H           -4.26314240987498       -0.65678184122853        5.43297191896914
H           -2.96119094927857       -1.99762667115009        7.05825804342180
H           -3.87375951844856       -4.38271262752044        5.39552375967264
H           -2.98881576086255       -4.47154542138021        6.91723261964832
H           -1.07597905019571       -3.25869209626398        5.88764301463999
H           -1.45767937351363       -4.72002658303084        4.97489668874203
H           -2.76682859642631       -3.37842949348764        3.35211796542012
H           -0.28173459993596       -3.74156049798117        3.05959831384756
H           -0.00939592746424       -2.13604764987116        3.76802273439663
H           -1.53210828971901       -2.60176773181752        1.44904355982465
H           -5.72737956219329       -3.21601632739851        6.60573025149349
H           -5.42837234627936       -1.64649694328775        7.38367606646695
H           -4.20054408898088       -2.89873621235061        8.94090203203842
