271
 energy: -356.778992465516 gnorm: 0.000341619270 xtb: 6.7.1 (edcfbbe)
C            0.42683346125912        2.23193826309084        0.32550223378039
C           -0.60971399420822        2.10671034455340        1.43890643173562
C           -2.01188950807238        2.50354624034031        0.98007145296849
N           -2.54081410114192        1.61475893793965        0.01195688703221
C           -2.52799746595972        0.51160224343017       -0.42071821451491
O           -2.69001668829758       -0.44956436577449       -1.05482167060551
C            1.80886618165759        1.80315728567529        0.81064346291266
C            2.87715245628844        1.87595016031486       -0.28040868384369
N            3.12775244175421        3.19535343736861       -0.73889605427699
C            2.80239268266755        4.33392424800255       -0.70483764332891
O            2.64619299418176        5.48196019730588       -0.80399883140985
H            0.46604752170600        3.26650471681468       -0.02657210899318
H            0.12595719172156        1.60315358337764       -0.51586220586147
H           -0.64851046878044        1.07133865763461        1.77654490321522
H           -0.32695668216224        2.74397745857255        2.27908477085956
H           -2.69446089019759        2.52370735888760        1.83710775301645
H           -2.00427218546164        3.49763396510383        0.52096157974199
H            2.11267862655892        2.43128634258579        1.65087663916839
H            1.76353236402954        0.77184561444202        1.16427576386678
H            3.82633439836358        1.48631927462491        0.09936322911135
H            2.57286858565623        1.28042132752407       -1.14843943786093
O           -1.39202498594196       -1.12358333473155        1.40595843104863
C           -0.91253400521888       -1.90800002693580        2.48108892830774
C            0.09781416328047       -1.11123047105090        3.30363151874693
C            0.71566986328614       -1.94297953450870        4.42331470911323
C            1.67397917424819       -1.11603067528587        5.27449418220018
O            2.81335538951723       -0.78314227095565        4.51419067915735
C            3.68448289934217        0.10017012167110        5.18245410231258
C            5.01125921049358        0.17826470941220        4.43336130323496
C            4.82283484776375        0.62994922860239        2.99012052065646
C            6.12884861154917        0.59660879844748        2.20482210327857
O            5.84469974481396        0.97094042605004        0.87345422251692
C            6.98343188787504        1.12811907022593        0.05882068271721
C            6.51605879281794        1.53630795589563       -1.33588163944697
C            5.73071904458741        0.42010500778263       -2.02677350058497
C            6.62666477135526       -0.56378246180505       -2.77090404979861
O            5.83228115487695       -1.63550483969908       -3.22870809273327
C            6.50588220579555       -2.48164481476120       -4.13315552058365
C            5.57658685668189       -3.63540433444969       -4.50045827733691
C            5.92788628325481       -4.29580851291562       -5.83178312419239
C            7.34021572902794       -4.87323032657843       -5.87829449234990
O            7.48755967804300       -5.86741232035395       -4.89486741245067
C            8.73941257178961       -6.51413267334244       -4.95596480088913
C            8.79679438980238       -7.59667375662024       -3.88454586138465
C            8.90833377977361       -7.00789111827345       -2.48149398876323
C            8.67172327662714       -8.07678226588319       -1.42431435801746
O            8.82242873778599       -7.52660944034307       -0.13535736181948
C            8.33746279840434       -8.38649498905505        0.87020913248853
C            8.56079423075459       -7.74778702681484        2.23398865406134
C            8.31587542879324       -8.74148805311030        3.36530323975114
C            8.58355692412500       -8.11979503198874        4.73249707937897
O            9.91393095835625       -7.66229567557595        4.78283358997616
C           10.30055384454927       -7.18815045699153        6.04995661281135
C           11.73475289761090       -6.66615720413587        6.00230067712363
C           11.88839884617177       -5.29583306314121        5.33996619752495
C           11.73150085178226       -5.35968146758276        3.82337679249769
O           12.75569635542684       -6.17439302365764        3.30356880509823
C           12.62585864576193       -6.46316744812421        1.93067871329504
C           13.53541889371159       -7.64650583396162        1.61484204517557
C           13.47297345509460       -8.09162847039510        0.15636116326340
C           12.07635725280118       -8.57339699879394       -0.26335318931849
O           12.12474957719378       -9.43752814404608       -1.38476972060558
C           12.28912478911808      -10.80398238110191       -1.05962557702683
C           10.95412409923960      -11.48679450570357       -0.73689602453903
C           10.17724010804928      -11.85210666511437       -2.00256973285654
C            8.68247226796982      -12.01885272063701       -1.72837675758308
O            8.50077615018365      -12.77887942552310       -0.55210901049401
C            7.17352394061368      -13.17920362338470       -0.30688544706193
C            6.16634924642524      -12.02892074049507       -0.18713042370117
C            4.91030712491594      -12.46590306892930        0.56423439830333
C            3.76602209719465      -11.47172733104063        0.38183008758461
O            4.20159985097068      -10.17398411884135        0.70593633283906
C            3.18925159507203       -9.19724834548472        0.55671536533762
C            3.82056638605080       -7.82854257537677        0.32852250211113
C            4.54886595298760       -7.78585100495358       -1.01243752431758
C            5.01302580231390       -6.38041094937525       -1.37213705041674
O            5.97242825464049       -5.95881422838659       -0.43417780988432
C            6.45492857081389       -4.66101939553999       -0.68384685503425
C            7.47260418191938       -4.31729001805044        0.39534563995374
C            8.00841919678426       -2.89824932483176        0.23944448993597
C            8.89370775385101       -2.50220471710647        1.41675872538817
O            8.10987832364457       -2.47875384130570        2.58648056496418
C            8.84638746730221       -2.28685590763873        3.77301947967685
C            7.98814330104794       -2.71911542007664        4.95717151951108
C            7.70112781849990       -4.21755219881345        4.90438914038664
C            6.59356045195315       -4.62578414898497        5.87976529767009
O            5.33190901625893       -4.06928060343833        5.60374512332225
C            4.69244388060885       -4.52841939710528        4.42246935111192
C            4.63902439895755       -3.44299671603768        3.34559678654553
C            3.95812742558552       -3.92851590215598        2.07019684743792
C            3.79534131294674       -2.77326920426888        1.08883045140356
O            3.27079310715251       -3.26840203774302       -0.12291828224533
C            2.98877788071973       -2.27857960601763       -1.09428802962301
C            1.68690648746796       -2.64438850596859       -1.80718680957466
C            0.53150587635288       -2.66306423782722       -0.81250582290461
C           -0.78648942058026       -3.11559033602107       -1.42769766368237
O           -1.71296909226818       -3.29987831527052       -0.37464260268684
C           -3.01253838064421       -3.63651280639197       -0.81112380838847
C           -3.89203480057213       -3.84955895445922        0.41477831435847
C           -5.32380943991913       -4.21639520138011        0.03446063553536
C           -6.10903925500867       -4.71989601385603        1.25278986732128
O           -5.49950354999831       -5.79667476599839        1.92576431777118
C           -5.52188891763911       -7.02395271038991        1.22968022842031
C           -4.79278778445682       -8.06593508231610        2.07226756638642
C           -4.57173684317232       -9.36033790720228        1.29658900896884
C           -3.72004261183559      -10.35741283890523        2.09108305171934
O           -3.33117295974112      -11.48109124550840        1.32512276952083
C           -2.00991040955260      -11.46929312677895        0.83777850777411
C           -1.73688951695659      -10.42744636045311       -0.25177727148750
C           -0.32935872428782      -10.56658827106598       -0.82187028860073
C           -0.05612232944454       -9.49959648385460       -1.87897730282119
O            1.27769383774403       -9.62800630740154       -2.32537968441594
C            1.55666844773358       -8.98029675104039       -3.54623438083648
C            1.49075324666947       -7.45212920192900       -3.48429269305045
C            2.01901306958832       -6.82775116600299       -4.77274252691416
C            2.00080549096196       -5.30405355767196       -4.70227490925937
O            0.67105443008377       -4.86585994237814       -4.51230141408571
H           -1.67658222332727       -1.74376932527160        0.71102351522971
H           -1.75386569352800       -2.21108744330327        3.12335801370223
H           -0.43606223057411       -2.81747750172990        2.09908060436141
H            0.89316933004382       -0.75828073609708        2.64594125690881
H           -0.40164982779797       -0.23826397939787        3.72904050286839
H            1.26722556784673       -2.78202364141295        3.99779008699252
H           -0.07029578499720       -2.33764952304855        5.06980572861960
H            1.98120037859245       -1.68873983056144        6.16437043583156
H            1.17278783304175       -0.19742782524737        5.61918788521427
H            3.21996388636314        1.09788842103949        5.24927047260451
H            3.86544175338767       -0.25903119379942        6.20737295614543
H            5.67115122658147        0.86630991043612        4.96532782881716
H            5.46777828546922       -0.81107979083304        4.43988118777229
H            4.10675364401012       -0.03170349309369        2.50482474978657
H            4.42090625659021        1.64420394872923        2.96179479072767
H            6.57012376249921       -0.41108509488127        2.23226539214049
H            6.85623644527164        1.29895173591599        2.64288468920063
H            7.63996941219852        1.90604860118995        0.48090855348660
H            7.55518251376494        0.18864806677040        0.02190915743344
H            7.38206227770004        1.81830512197802       -1.93669429292144
H            5.87479228565076        2.41147140791768       -1.22627543308120
H            5.02671617046066        0.84607947973489       -2.74189136991467
H            5.15714626267424       -0.12894986508577       -1.28139845513975
H            7.42441141098756       -0.94460010988207       -2.11430993607597
H            7.10738229456510       -0.06157588271086       -3.62630267441584
H            7.43413514501501       -2.85519414459934       -3.67602458443766
H            6.77796644222663       -1.90877136257404       -5.03614428557747
H            5.59605362744727       -4.38223579477204       -3.70832758615837
H            4.56482387088559       -3.23070458580536       -4.55981438112223
H            5.22049109906539       -5.10651427937138       -6.01344397776176
H            5.83567058514817       -3.56962666281716       -6.64204339208328
H            8.08753165364378       -4.07820621261487       -5.72624217250893
H            7.52049628507657       -5.30873157363241       -6.87585504473109
H            8.87160686109264       -6.96266324820997       -5.95443793399388
H            9.54955100900901       -5.78245828071730       -4.80708199807572
H            7.88315325622063       -8.18922444308617       -3.95923233870286
H            9.64879327510939       -8.24903589642716       -4.08201277917956
H            9.89697361778441       -6.57001933215240       -2.33522506295409
H            8.16373492966411       -6.22435403700659       -2.35729717004639
H            7.65290222797357       -8.47775543799698       -1.53714483787276
H            9.38518284015354       -8.90367751820049       -1.56362837866967
H            7.26530515903722       -8.57952279895493        0.71379816589252
H            8.86632912435554       -9.35362685075775        0.81877254713771
H            9.59157597747606       -7.39801911939382        2.29022095296557
H            7.90177860962034       -6.88471838405529        2.33295598261090
H            8.97942603102384       -9.59898630002222        3.24020039329601
H            7.28465746438769       -9.09825171624851        3.33675278880774
H            8.41417498456255       -8.86793335603041        5.52443077842825
H            7.89284854595446       -7.27995000751665        4.91073932410780
H            9.61311270043957       -6.39292560094278        6.38523546369334
H           10.23304326079433       -8.01026781179862        6.78285195937679
H           12.10327612093419       -6.60602725914658        7.02777558212876
H           12.34473217704072       -7.38205499450505        5.45231629020216
H           12.88743017541565       -4.91577948648149        5.55989784027517
H           11.15603775830365       -4.59369425067609        5.74464668851192
H           10.74995350439270       -5.77794186161898        3.56406910183392
H           11.80211870106267       -4.34431252680142        3.39443703200244
H           12.90628317845193       -5.58451875758977        1.32632924264198
H           11.58246156291484       -6.71459932110559        1.69483779749657
H           13.24461037993640       -8.47215364362625        2.26749874085864
H           14.55926943513396       -7.36857125263546        1.87120457462955
H           14.17672109165441       -8.91554225248553        0.01560413554916
H           13.78855544192056       -7.27872689671448       -0.49955768333647
H           11.59463920467100       -9.07607787440548        0.58379340628957
H           11.45075350857682       -7.72836282930543       -0.55704051647243
H           12.98078421664779      -10.91318460534924       -0.21451349882210
H           12.74489548974033      -11.26921044234842       -1.93839771773946
H           11.12679286392254      -12.38513430499858       -0.14567560585689
H           10.35193264744029      -10.80760436064806       -0.13131729834892
H           10.29981210579520      -11.06178962837513       -2.74571700524869
H           10.58180229150824      -12.77744416244500       -2.41524932507712
H            8.19664333388896      -12.51927990243937       -2.58082477769883
H            8.22178110237965      -11.02847994628608       -1.60787624257405
H            6.84017327283784      -13.87624056684349       -1.09367854463773
H            7.22718778787197      -13.72460683853467        0.63925292585017
H            6.62697734222442      -11.19822721397302        0.34849509513085
H            5.88467050979855      -11.67668668325622       -1.18130960296547
H            5.14061629655146      -12.56133780363782        1.62598217613733
H            4.57369766005964      -13.43816032282387        0.19787215831661
H            2.91839183854489      -11.76193223661913        1.02510589283666
H            3.41286613534763      -11.49037329944785       -0.66232058722405
H            2.55551805343085       -9.18494584068594        1.45886616336329
H            2.55864105411785       -9.44834350680305       -0.30730554736959
H            3.03237272130786       -7.07348326996026        0.34576361617234
H            4.52640394061291       -7.60909975130964        1.12892336406425
H            5.41452960882003       -8.44645290759916       -0.96295034268907
H            3.88823320045098       -8.15213090927696       -1.79938955895788
H            4.16034567894811       -5.68091991514032       -1.36695874448168
H            5.45178821520336       -6.37966213129697       -2.38512441690189
H            5.62040073034950       -3.94584188648020       -0.68261662795106
H            6.92667839846322       -4.61457963264347       -1.67961172392436
H            8.28279651626977       -5.04745797199553        0.35043532072185
H            6.98667443381020       -4.40648528727288        1.36648590879574
H            8.59007121425419       -2.81209083402822       -0.68079790861827
H            7.16852028255162       -2.20232304004938        0.18428949156027
H            9.34393926463840       -1.50933639390300        1.24586665828791
H            9.71272690869433       -3.22966411137432        1.53039201514834
H            9.76651829699658       -2.89059780968875        3.74353027933116
H            9.13633389681118       -1.22806982023334        3.86950931312081
H            8.50219656144139       -2.46196319573924        5.88486700500994
H            7.04288382257736       -2.17689704745415        4.92829523996032
H            7.40435728344444       -4.48195294947370        3.88895180029886
H            8.60718708859049       -4.77768653322103        5.14243108146276
H            6.83731496441956       -4.27418298708256        6.88696377766376
H            6.51933383508081       -5.72543714946230        5.90607908057063
H            3.66940107693850       -4.80481504030835        4.70836028366163
H            5.19009584471461       -5.42749280931835        4.03946786593948
H            5.65110382469890       -3.11043487944720        3.10894715032612
H            4.08659902219549       -2.59257765398081        3.74860429140347
H            4.54196615095837       -4.71710815636040        1.59329553385819
H            2.97199511726037       -4.33823175465441        2.29855936293860
H            4.76816106428909       -2.28824195416104        0.91581604193210
H            3.11399971595045       -2.01977640193378        1.51422163784469
H            2.87307038639957       -1.30018191043247       -0.60957895792990
H            3.81861838790107       -2.21258987423300       -1.81332855409001
H            1.50153466973002       -1.92271296404483       -2.60520719397857
H            1.79849471718528       -3.63687183859929       -2.24378002032095
H            0.39709341184868       -1.66993225955888       -0.38021598082160
H            0.78602454899337       -3.35390413133914       -0.00734321199349
H           -0.65465352539169       -4.06153575006254       -1.97570698880523
H           -1.16953495511119       -2.36205893884590       -2.13092329763621
H           -2.97085575095010       -4.55466781310646       -1.41862606226965
H           -3.41585332816349       -2.82958120181737       -1.43862260494207
H           -3.46382680619797       -4.64808682374945        1.02302555120540
H           -3.89051291923455       -2.93808435393160        1.01405687792584
H           -5.31195109739768       -4.98737901137372       -0.73906943928668
H           -5.84218432630077       -3.34850726019070       -0.37508015233974
H           -6.16978623850087       -3.92651800335504        2.00211054079484
H           -7.12963928520018       -4.99521157859558        0.94467635947986
H           -5.01564024914927       -6.92887050895305        0.25863781554114
H           -6.56222745860985       -7.33259643377483        1.04055555123090
H           -5.36103804796343       -8.25722929179926        2.98287155714232
H           -3.83152340684487       -7.63996440893007        2.36622679360913
H           -5.52856180419483       -9.82628142389993        1.05683504650097
H           -4.07327615018211       -9.13449673146643        0.35326078597539
H           -4.30723779517696      -10.74465993959991        2.93120839915263
H           -2.83509907075233       -9.85222612541074        2.49843414067207
H           -1.85783053132301      -12.47299885284483        0.43173693716914
H           -1.30256489446709      -11.31926553874846        1.66851076913716
H           -2.47426591261488      -10.55134859524231       -1.04762081956158
H           -1.84799951129930       -9.42529252840477        0.16694790742563
H           -0.19680986248237      -11.55211584665564       -1.27060329999941
H            0.40720628081790      -10.46280588379936       -0.02379296060003
H           -0.74666433734174       -9.62638591414611       -2.72616972393138
H           -0.21971719945011       -8.50070114838590       -1.44919974846702
H            2.57304862651072       -9.29596036555442       -3.80001034805841
H            0.87299989745284       -9.34735380323534       -4.32783645288317
H            0.46085560369838       -7.12514521708949       -3.33822328419258
H            2.08300813719891       -7.10260305598034       -2.63659602313056
H            1.39926928042302       -7.14804106038779       -5.61180810467555
H            3.04528643022042       -7.15173362893823       -4.95481503638548
H            2.40792860675841       -4.88869277404082       -5.63572225086907
H            2.63932255767562       -4.97133511882573       -3.87158957024777
H            0.66209767281448       -3.90539180234511       -4.45248696598946
