214
 energy: -290.338758403542 gnorm: 0.000303070562 xtb: 6.7.1 (edcfbbe)
O            6.41993360644373       -0.14039340547661       -1.33646936244287
C            5.63785618927991        0.42077266676281       -0.68406387197450
N            5.05120079388676        1.04046327571906        0.14152896570850
C            3.83856491398216        1.39710219195251        0.67405088612094
C            3.82612742758232        2.14173357510823        1.84869477478879
C            2.62240809976034        2.46409318099994        2.44388532163760
C            1.41392681182271        2.05940087259572        1.88784684457312
C            0.12230295434337        2.34798729535634        2.62063891378876
C           -1.04775263375642        2.56784433195471        1.70619075259325
C           -1.79941721591033        1.49063916942635        1.24722181352468
C           -2.84207085874973        1.67492476919304        0.36018371728818
C           -3.14843097764542        2.95762238752753       -0.07970026451776
N           -4.17009757023935        3.10802129203851       -0.98875737817907
C           -4.73372813093605        3.82958089323758       -1.74753387874094
O           -5.39732029955884        4.36975904119148       -2.53046860715597
C           -2.42847133554145        4.04786197268175        0.40083377715340
C           -1.38506117074274        3.84946910380436        1.28530139480653
C            1.44036129302802        1.34403766346204        0.69592013374307
C            2.63628689326239        1.01130828189611        0.08810541978755
H            4.76114399766569        2.45003444472788        2.29029770696653
H            2.62079028757396        3.02847267959583        3.36463373678105
H           -0.08580880870624        1.49482789007737        3.27525937642541
H            0.26351165182295        3.22748727800516        3.25030795927578
H           -1.56658922355898        0.49226427715560        1.58983824535227
H           -3.41806394402816        0.83743129549788       -0.00179496620397
H           -2.68521697260518        5.04308494271754        0.07223328203585
H           -0.84215501401464        4.70745249275618        1.65380258428024
H            0.51350017805895        1.03618520566005        0.23433388262234
H            2.65573346746437        0.45845439375620       -0.83844175402219
O            4.30887300123578        1.16908173961096       -2.91322626893236
C            3.32801699488298        1.15409740604338       -3.92689829450206
C            3.82165974738921        1.82816011426142       -5.20555689844580
C            2.80751256084447        1.79826148386183       -6.34710746356472
C            1.69344826349117        2.82824538391478       -6.17925121101884
O            2.26384236603529        4.11447005224653       -6.12221792657623
C            1.31616461332908        5.15352314598560       -6.20893084502439
C            2.01976691135237        6.48318181856958       -5.97188894926260
C            1.03387721370983        7.64790105451738       -5.97810912848529
C            1.74930227070227        8.97884776856649       -5.77584025344255
O            2.57692742875380        9.23097533921267       -6.88553121034819
C            3.39950130066351       10.36117645748226       -6.72245392428962
C            4.30080676303300       10.52908172972132       -7.94350968827422
C            5.03748794101481        9.24668483746107       -8.33404638346925
C            5.88897184632330        8.66632417943943       -7.20790629411667
O            6.82931979538547        9.62952983745551       -6.77142702444416
C            7.26907783478992        9.46043632998898       -5.44652951536543
C            8.16789386709111        8.23750334552360       -5.23202992642610
C            8.42429494201560        7.95321739639175       -3.75143539444267
C            7.21819884728036        7.29332457206285       -3.08184068498225
O            7.00413503742006        6.02893210104609       -3.67479257834143
C            5.66529588184635        5.58785733602809       -3.67448636814500
C            5.06318271126021        5.39108010616103       -2.27938005333102
C            3.89306957557978        4.41393710076418       -2.33208243856948
C            3.11116203160921        4.37695497847650       -1.01751417123658
O            2.28196863498876        5.50550534312604       -0.79909212760006
C            0.90932451086125        5.30514070231975       -1.05102299637304
C            0.54861838953465        5.20511422605369       -2.53621555632461
C           -0.94068228966464        4.95658450141427       -2.77205150641236
C           -1.81088335541869        6.18254233813757       -2.51905065457581
O           -1.47727108543818        7.20336731406316       -3.42976170263791
C           -2.33166153457774        8.32096990605599       -3.31198673317324
C           -1.80565515159083        9.45113282286346       -4.18675866208791
C           -2.70653986116295       10.68405707276634       -4.14614386767789
C           -2.86973925919226       11.26528843484681       -2.73452632741346
O           -3.83790181746898       10.60229082896234       -1.94848194254228
C           -5.15500253100855       11.06465768999102       -2.16581484522747
C           -6.16944489192317       10.21856656068997       -1.40216672537973
C           -6.30748981449513        8.79320712683014       -1.94690610999356
C           -5.44536512494754        7.78713751092438       -1.19285318291976
O           -6.05423398022303        7.53032084566522        0.05545320680738
C           -5.42095265967301        6.51607425630723        0.79838267167935
C           -6.23663477747398        6.27882052484969        2.06419192744141
C           -5.69722768629070        5.14927734903751        2.94046188947011
C           -4.23996865288009        5.36695425971501        3.37610223858307
O           -3.95718830515704        6.66514520546602        3.83324006669948
C           -4.32063452612942        6.94180585646538        5.16871021773082
C           -3.64572028680594        8.24338124909891        5.60725246086322
C           -4.44017985484195        9.50691913539299        5.27817349493933
C           -4.64890960739208        9.71667059615742        3.78315879659448
O           -3.41241728876095        9.93707078568347        3.14870548957154
C           -3.54186325320172       10.03707887714602        1.74937269377418
C           -2.16694182873970       10.09115378532062        1.09229399467797
C           -1.48988878324719        8.72807162378741        0.96123996095238
C           -1.29459841172954        8.03135362470947        2.31126595487372
O           -0.41243068650376        6.92699731309716        2.25349864177691
C            0.96041034058757        7.25769682440845        2.31294012893101
C            1.74205517048550        5.99860925437356        2.68208447995631
C            3.12586639394985        6.30107332724913        3.24507279434346
C            4.08117169723024        6.90359120389051        2.22103783108555
O            5.32166513567646        7.08529820576401        2.87402279683116
C            6.35493009785938        7.59878474692179        2.07005797561492
C            6.95571560171052        6.58117162019745        1.09167152076494
C            7.25516680333424        5.25768861245001        1.79310084403776
C            8.17834279697276        4.35864131860394        0.98160559553790
O            7.58807824380623        4.02564697131828       -0.25269967198421
C            8.39473445446504        3.14960926039322       -1.00388841564183
C            7.75451252308728        2.87797782350356       -2.35885227465835
C            8.59200887371787        1.88289997433489       -3.15942566668258
C            7.87348451419269        1.38054795285958       -4.40868346165212
O            6.76994581280905        0.54974807013912       -4.11449772466452
H            5.16145508432843        0.97059004478131       -3.34493991400807
H            2.45701159425946        1.67261515876132       -3.51624445122106
H            3.03854777612867        0.11421156570765       -4.14946527121287
H            4.07384424431114        2.86769614659227       -4.99383626899980
H            4.73109642715795        1.31146686192169       -5.52184341594775
H            2.36057850278037        0.80576397106481       -6.43224436516058
H            3.32683333642653        2.02310997473605       -7.27970639447878
H            1.00122547590913        2.76141155585546       -7.03403957877275
H            1.11139737603332        2.63331806309599       -5.26387006166094
H            0.52652790001784        5.01110484339197       -5.45598067378037
H            0.83810079452144        5.14359021055590       -7.20200945270076
H            2.53159775698208        6.43335184512290       -5.00877537926860
H            2.77220850836158        6.63418329360043       -6.74616824120675
H            0.29365398206679        7.51652384821580       -5.18684694892590
H            0.51633223402176        7.67996421545419       -6.93794995340601
H            2.35446869440811        8.94444471479584       -4.85458932344583
H            1.01610119826411        9.79468397520664       -5.66373482549785
H            4.00910165398873       10.25175581792635       -5.81150820215287
H            2.78000876506812       11.26473169913572       -6.59226490716903
H            3.69166405314951       10.84537506559670       -8.79146405563972
H            5.02759878908444       11.31142187655316       -7.72335950380999
H            5.68314571379575        9.46579250691429       -9.18535269405277
H            4.30934936724938        8.49084250269815       -8.62818334984081
H            5.24311376982181        8.36386952201072       -6.37339329175316
H            6.40463965200531        7.76719776117736       -7.57632274029115
H            7.82167971528896       10.37455110724312       -5.20927799792088
H            6.39710118160371        9.40142957980452       -4.77583438521034
H            7.69629147082282        7.35477846159244       -5.66566637947311
H            9.11266319884461        8.40394420891493       -5.75157699690720
H            9.26880349104986        7.26910867271512       -3.66214101189641
H            8.66799574682216        8.87635891222585       -3.22226042699187
H            7.40531189233293        7.17657109939268       -2.00499878333088
H            6.32596811048708        7.92086998100105       -3.20382338504069
H            5.04089337249793        6.28234694198844       -4.25962444107511
H            5.69330742216722        4.63045388012162       -4.20156653911856
H            4.71512015948962        6.34730238162393       -1.88134907421067
H            5.83418757496974        4.99547233414392       -1.61507529589586
H            4.26896555561504        3.40802058314982       -2.51818813974153
H            3.22896121932998        4.69201842469237       -3.15135363881033
H            3.82459588692484        4.34836202228817       -0.18537134783715
H            2.50808067091903        3.46294828343294       -0.97153460684195
H            0.41371276049839        6.16593017167302       -0.59692692737998
H            0.56486810432808        4.39486874667066       -0.53399837589524
H            0.84364211712199        6.12425168363552       -3.04272196410083
H            1.10596911036240        4.37443116790394       -2.97234416618520
H           -1.09077218549402        4.65513433359384       -3.81091463442530
H           -1.28675070882883        4.14491140963443       -2.12776410229603
H           -1.67446040474301        6.54728664648004       -1.48951475053761
H           -2.87231497354093        5.91038981026692       -2.64294471886533
H           -3.35251775758875        8.04361839904977       -3.61849894646334
H           -2.37512468103092        8.64963955768723       -2.26507030952981
H           -1.72554842023035        9.09112030522156       -5.21380478132470
H           -0.80256308631188        9.71395049769749       -3.84565655051099
H           -2.27773621759380       11.45265203792866       -4.79147039127219
H           -3.69085277806293       10.42643950964661       -4.54133666751926
H           -3.12298410391640       12.33345111697525       -2.79916778273639
H           -1.92421441883043       11.17124770235237       -2.19186915933630
H           -5.39768069915247       11.04078647236856       -3.23852138329013
H           -5.22594667131309       12.11379153247893       -1.83176177056664
H           -7.12923656925964       10.73290798903028       -1.47215181935787
H           -5.88514329705047       10.17242758566329       -0.35183132306787
H           -6.03710924552739        8.76924517988037       -3.00328128494708
H           -7.34266472846729        8.46342431640980       -1.85188380164075
H           -5.37644071215684        6.85063659474473       -1.76741539187855
H           -4.43100277807590        8.18656619993279       -1.05121383304433
H           -4.39461058137283        6.81932635839124        1.05458738569945
H           -5.36690583690307        5.58809754208887        0.20424120690304
H           -7.26325326200668        6.05338746913036        1.77032186927424
H           -6.25445240569337        7.20877803409307        2.63370419791480
H           -6.33531113403691        5.06519495227747        3.82303511148572
H           -5.74353139450315        4.20075593304972        2.40154077372649
H           -3.57313569687632        5.21052642940971        2.52449363404484
H           -3.97946272554905        4.62675753687497        4.14878001758120
H           -3.97922676298076        6.11396692599667        5.81057812746414
H           -5.41357234389047        7.01950361589827        5.27252259568769
H           -3.48515199487296        8.20728375779967        6.68626020875958
H           -2.67760999794448        8.29744178314474        5.11070136832840
H           -3.90133065330702       10.36898339827703        5.67463604103169
H           -5.42057628521073        9.46420428852625        5.75817586228432
H           -5.31238815171072       10.58407195352489        3.61960493039787
H           -5.13407210473727        8.83488212167876        3.34391716154816
H           -4.11416477009271        9.18221680454137        1.36273510237554
H           -4.10375684015642       10.95348076661924        1.50012243164205
H           -1.53660569358688       10.76015371301967        1.68076930765604
H           -2.29543518395235       10.51547793845212        0.09578418236241
H           -2.08634005998917        8.08532980229873        0.30847652194347
H           -0.51498517534416        8.86743234089634        0.48640986073349
H           -0.92830875077403        8.76319294886420        3.04401119132626
H           -2.24316561060709        7.63098739951653        2.67368766228383
H            1.11531854186980        8.02950893644221        3.08277100551635
H            1.31153587749829        7.65539648839889        1.35139338112778
H            1.15985956241668        5.47248471727964        3.44169059075940
H            1.82902565290781        5.35613192725605        1.80566375676067
H            3.04735342788386        6.98685894622090        4.09095272232423
H            3.58023950630677        5.37924012300401        3.61228316128749
H            4.17560366006282        6.23208050904162        1.35836231281385
H            3.70798404780038        7.87279907376654        1.85752574752094
H            6.00590040674294        8.48479230296841        1.51726373875576
H            7.12346369660576        7.91343746714803        2.78278956512742
H            6.27513102052469        6.40148683563934        0.26036305037993
H            7.87656379926419        7.00663691141705        0.68750930399965
H            7.73278791779534        5.45548277072088        2.75475663232553
H            6.31931525877138        4.73209631172271        1.98218385780381
H            9.14035869442117        4.86928011335391        0.80485267940072
H            8.39071270699029        3.43738596183808        1.54999800251877
H            8.52431509820469        2.20400316497987       -0.44934245184977
H            9.39523396694520        3.59261552618428       -1.14350984938079
H            6.75115845733100        2.48311522769174       -2.19543895658290
H            7.66923853626714        3.81699417622183       -2.90542668957392
H            8.83523068131577        1.02087507021446       -2.52996293303853
H            9.53110766854987        2.35031618752818       -3.46068140149442
H            7.47604301380047        2.21864651167049       -4.98624527622508
H            8.58317005141863        0.82655833963404       -5.04077419760750
H            7.01864560809948       -0.04306941916417       -3.39024178606176
