395
 energy: -513.848756889910 gnorm: 0.000541536484 xtb: 6.7.1 (edcfbbe)
O            6.84609285389270       -0.07524152407421       -1.03211626429500
C            5.95159966702833       -0.23926942688037       -0.31180844001912
N            5.15385080188721       -0.40174222838155        0.55154266983224
C            3.75609503320537       -0.49569269796958        0.80233795860835
C            3.19822633737839        0.86392554868597        1.23056894655530
C            1.70572550501039        0.74293861943643        1.52403752356926
C            0.93143092869676        0.22552557023851        0.30831494933671
C            1.51310818229380       -1.12333038451635       -0.12189001997701
C            3.00397159578223       -1.01136654298007       -0.42453731957487
C           -0.56118482632250        0.12076244763311        0.64881016036111
C           -1.49146617487193       -0.07270598587018       -0.55436870346595
C           -2.89379290823539       -0.46902014812510       -0.08347366335662
C           -3.84162156818697       -0.67093232577572       -1.26281087426704
C           -3.92020492962663        0.57886891540575       -2.15087469857245
C           -2.51435627035074        0.99507809763226       -2.59473268505975
C           -1.60248032085571        1.20037499205669       -1.39230802719220
N           -4.58928573969841        1.63902661832262       -1.47731999279371
C           -4.47374837655324        2.43321200659075       -0.60232466174732
O           -4.57285121139515        3.27207228384720        0.19613098102066
H            3.64257526284855       -1.20782709377187        1.63085505629079
H            3.72268499463803        1.21327224826504        2.12326524275645
H            3.37315610995779        1.59256337208818        0.43600442841057
H            1.55454432544617        0.05787614526345        2.36293993179183
H            1.31668450107311        1.71943913431547        1.82042448709735
H            1.06763809899177        0.93824619852225       -0.50998006270617
H            1.35560100586582       -1.85360812835169        0.67667582679793
H            0.99928934006240       -1.48765743013038       -1.01251232463322
H            3.16453582407582       -0.32400006005172       -1.25817713611299
H            3.41328341518621       -1.98223171900463       -0.71071910919465
H           -0.86833582316266        1.02912530468538        1.17399442200999
H           -0.69914706432932       -0.71505657984055        1.34041476097508
H           -1.10107784649797       -0.87890182445263       -1.18443960576436
H           -2.84648433278888       -1.39160242138293        0.49955583098110
H           -3.28769147082849        0.31426316565110        0.56924255673229
H           -4.84001738054159       -0.92174651636531       -0.89861139877287
H           -3.48732473555099       -1.49993236128071       -1.87904928271551
H           -4.53896091495294        0.35930386839595       -3.02975319924791
H           -2.11485069532600        0.20201960590848       -3.23012260490659
H           -2.55903731827101        1.91245245393791       -3.18324248727069
H           -0.62294865043925        1.52198546657977       -1.74049151989880
H           -2.01093953064491        2.00095978274547       -0.77075994521342
O           -2.55930522713250        3.54410526918450      -11.56105869312849
C           -3.65375354268366        3.49941166658229      -12.43540527363654
C           -3.28593917888077        3.69456959543261      -13.91206132105858
C           -2.73309405928296        2.44553819483488      -14.60749925742874
C           -1.27260425537782        2.12173326738243      -14.27342043433440
O           -1.05071225733903        1.70852631733873      -12.94052219379520
C           -1.33889219927721        0.35361256985134      -12.65887064878383
C           -1.20507656509853        0.14210152699314      -11.15295014216442
C            0.18940726640103        0.52971548659595      -10.66953943518996
C            0.32705527379856        0.42705637811585       -9.14481718827139
O            1.28840546556122        1.30606189529765       -8.60898558615176
C            2.62657466195616        0.98081840610152       -8.93053008246100
C            3.54917436894275        2.05343070831932       -8.36526938465691
C            5.00640856092705        1.77715147725842       -8.72349082763055
C            5.94383906379502        2.83715347131849       -8.15535424903910
O            5.70764435658164        4.07224317850510       -8.79702939328275
C            6.59070837424686        5.08433954790994       -8.36730710446808
C            6.14108284112756        6.41682949216302       -8.95423582814977
C            6.96806132593697        7.58305241376050       -8.42236657928724
C            6.34583422353324        8.92701421839714       -8.78385152750319
O            6.29119129660687        9.06639002939182      -10.18605643422252
C            5.83453069154873       10.33767914826472      -10.58617711841695
C            5.61743730060369       10.37460758716110      -12.09779085385181
C            4.27768159595898        9.78468059590372      -12.53397336838257
C            4.21480235668549        8.26930293210201      -12.37561060775845
O            2.86945487295009        7.86700819198150      -12.52482358478331
C            2.65857199382903        6.49452290181676      -12.28312446353685
C            1.15446406420806        6.25128203117643      -12.19460038447724
C            0.79231655333434        4.84045914141336      -11.73208259508523
C            1.08723931964621        4.63134670678109      -10.24171793639037
O            0.37486652057095        5.53062060462592       -9.41769412548558
C           -0.91750811981958        5.10690709673640       -9.02667275953441
C           -0.87368456529501        4.07754666644481       -7.89511451630644
C           -2.27299863867296        3.76621021253704       -7.37505606198027
C           -2.27430390833145        2.61385654605505       -6.36486977868199
O           -1.38865697171120        2.84160318126344       -5.28781977854996
C           -0.23506100099210        2.02094882771564       -5.27359834540234
C            0.73157682297821        2.54526350091384       -4.21161269712571
C            1.63747925944871        1.45020893594456       -3.65746689233231
C            2.53645622607231        0.84530820915873       -4.73018510391513
O            3.24926881718861       -0.23400173240847       -4.16051384712870
C            3.94889316640266       -1.00153942388529       -5.10971030433290
C            4.69650436959574       -2.11637405107264       -4.38861192000250
C            3.73210573149228       -3.07359987948762       -3.69260286052311
C            4.47672081007717       -4.14527441770372       -2.90459207434993
O            5.29998892270778       -3.53106928545660       -1.94358718663372
C            6.12972991932044       -4.43157008252741       -1.24845568218979
C            7.25415341818748       -3.66006671591736       -0.56507631672706
C            8.20029240100432       -3.03509019546842       -1.58649228520829
C            9.32590302246559       -2.26485212424813       -0.90870399259957
O           10.13760677763161       -1.67924693098106       -1.90825328723533
C           11.21209267161624       -0.91980867303924       -1.40665519851830
C           10.82271249668632        0.45716089767500       -0.85446621951043
C           10.56069111131908        1.50315780134222       -1.93578290592309
C            9.40476115621715        1.13237147518655       -2.86430459179777
O            8.92979063509605        2.32328493365887       -3.48566029336633
C            8.28643706608397        2.14482167187218       -4.72217376567193
C            6.98510637176409        1.33229010418188       -4.68242848512929
C            5.99568024145663        1.78340570423229       -3.60812066008612
C            5.54336135412494        3.23545901220873       -3.69585465336145
O            4.79973185707109        3.49129412428771       -4.87394761737642
C            4.34501274244012        4.82507325125906       -4.90010084915029
C            3.54332555003264        5.12022067796402       -6.16393586088004
C            3.30942589180382        6.62292856205243       -6.29390427756032
C            2.57281052649259        7.00084831711607       -7.57484134861189
O            2.79225444747338        8.37944296369706       -7.81079230141740
C            2.27035842991574        8.85682267891159       -9.03139858207718
C            0.74175369163245        8.89913772788610       -9.09078973305362
C            0.17857099320898        9.68942062765062       -7.91444084506573
C           -1.32994933577956        9.88502316551987       -8.01805056590400
O           -1.73771952814419       10.75333165795495       -6.97289841618793
C           -2.95897222368515       11.42505317848341       -7.16648369452437
C           -2.92313944423035       12.47333088939395       -8.28952315712127
C           -1.67087661754021       13.34233391283336       -8.19325350259871
C           -1.39825794205803       14.10424768004640       -9.49296232534647
O           -0.14081876706159       14.73131612582274       -9.53141184756256
C            0.97012754700442       13.85400754118933       -9.63113718737790
C            2.02066878865735       14.50648574934922      -10.52674574931230
C            3.26502584522896       13.64241744388110      -10.71899703679471
C            4.15270549849688       13.54524884767982       -9.48099435931410
O            3.64398184970516       12.59402791165693       -8.57268306174386
C            4.49981732205404       12.40112619407015       -7.46861209416583
C            3.88767597575432       11.39839752011257       -6.49671633340673
C            4.91231424928281       10.95806479147989       -5.45590405737842
C            4.32652271504797        9.94607905825039       -4.47663744682566
O            5.38898025839082        9.31388566453419       -3.80160124839770
C            4.98080464474723        8.26389437414982       -2.95049672217263
C            6.21106132000476        7.55221458201259       -2.39124064058628
C            6.85388156248149        8.26574696521275       -1.20117139157384
C            7.39465135586778        9.64219151074280       -1.57377634333042
O            8.42830845801400        9.48784904047360       -2.51719409665976
C            8.74405797107877       10.67081897678588       -3.21267086331551
C            9.72938501117887       10.32936975043126       -4.32438958093982
C            9.08048265771134        9.43725505756906       -5.38434152304122
C           10.12070958985630        8.57687034613941       -6.11180381663037
O           10.98460140103340        7.86528941786720       -5.25958198748035
C           10.35237378197279        6.90305680367879       -4.43560956606277
C           11.44536081716285        6.12805740765444       -3.70497938057996
C           10.89510389670773        5.11092946763042       -2.70759772168238
C           10.36727514974709        5.77297027927245       -1.42927828251258
O            9.77747911920153        4.86671992307723       -0.52248933567519
C            8.45196262687648        4.49219486969976       -0.85085156288154
C            7.90958059174560        3.61487448025404        0.27379768893603
C            6.45095753605634        3.22321478385614        0.05178984796829
C            5.46889996979096        4.35014643082244        0.35748727109612
O            4.20067698492894        3.98042860877032       -0.14248912911905
C            3.19912017356883        4.93939295749496        0.12189373485981
C            1.87091144573770        4.42903471689097       -0.42213831708602
C            0.71102291810538        5.34676129348074       -0.04816730917377
C           -0.60405593192841        4.82183683681617       -0.63375914987643
O           -0.61843628755433        4.79602422483252       -2.04320623728702
C           -1.01888860209188        6.01336999138920       -2.64448716144247
C           -0.67452338791373        5.96350053761783       -4.13044368998591
C           -1.45161774083019        6.97373215694258       -4.97483934555475
C           -1.33952525744692        8.41645998859030       -4.48279976806399
O            0.02282514844584        8.76631055056600       -4.34780318409525
C            0.26202282987454       10.14746980941148       -4.22617328337997
C           -0.19044065583632       10.77622684504867       -2.89563461628580
C            0.08068837453803        9.90946078548636       -1.66449240221663
C            1.50738122391811        9.35865993505902       -1.60928484780445
O            1.70154755194840        8.51266159541284       -0.49195940074947
C            2.07614751915530        9.14759888348092        0.71195983282257
C            3.59709520447972        9.26606392182452        0.84037531221572
C            4.02364065366933        9.88369898515947        2.16747845236240
C            5.54066808359634        9.85034927746422        2.32966648689386
O            5.95496403072694        8.50963252518821        2.42229565362576
C            7.34760852782704        8.35715315625779        2.57501679683792
C            7.66479332298069        6.88421225437089        2.80760756268530
C            7.11447431777666        6.40212604651928        4.14779881679205
C            7.46850578294230        4.94651053993719        4.43647921472589
O            6.78512243745213        4.10927532648437        3.52810860851108
C            6.77160866013432        2.74245740537879        3.86640280270935
C            8.13958491948747        2.05931869768642        3.75684520129497
C            8.07515055275137        0.54183576023675        3.94447950958597
C            7.31919439757599       -0.20741333952433        2.84069374779481
O            7.88729339719058       -0.05408791684027        1.56467246959082
H           -1.90618002314572        2.89131543648773      -11.87635432885891
H           -4.31443634376755        4.31159048572853      -12.11885562361807
H           -4.20230291917454        2.55040959734407      -12.31842597323380
H           -4.19118385054669        4.00192766169247      -14.43921128945080
H           -2.56158507580696        4.50831463413792      -13.98522328068849
H           -3.36587435504770        1.58742528730613      -14.36797617286270
H           -2.78387525990375        2.59802975632410      -15.68738122288237
H           -0.66160803440045        3.02115290447846      -14.39467305855011
H           -0.90158268139476        1.35095104900954      -14.96260831487893
H           -2.35586693783892        0.09361484622651      -12.98270727552687
H           -0.63231937533121       -0.29009464055657      -13.20448020954693
H           -1.41402305370155       -0.90423588840709      -10.92362815751630
H           -1.94665333467120        0.76171728102036      -10.64521736044031
H            0.37811024786647        1.56451123534709      -10.96026819219523
H            0.93083559344272       -0.10260578362318      -11.16180849954784
H           -0.61440448125459        0.72491025617687       -8.67369027918829
H            0.55091239788920       -0.60940833380233       -8.84843270519053
H            2.87756424048907       -0.00599591599473       -8.50773664168209
H            2.75389981849343        0.92571427520945      -10.02030257559603
H            3.43421063029291        2.09364027229097       -7.28235171051525
H            3.25306014288086        3.01981546943360       -8.77127622185766
H            5.12050328504590        1.75763138248867       -9.80886055407722
H            5.30755893146283        0.80416880469203       -8.32861483388994
H            6.99102872523157        2.53206304401736       -8.31585012077179
H            5.77715490484359        2.94567048858687       -7.07333896493597
H            7.61931487887060        4.84532866588317       -8.68373316153055
H            6.58494871930941        5.13833915956087       -7.26685754060998
H            5.09551751588787        6.56852531876836       -8.69052434118310
H            6.21349022519086        6.37950626182432      -10.04102660805170
H            7.97912793415099        7.53684502165251       -8.83038655689537
H            7.03160485626280        7.52751748088206       -7.33336707721393
H            6.95513732046047        9.74119013200412       -8.35544006414997
H            5.33199445353011        8.99990190752937       -8.36104669905021
H            6.58815740886909       11.09327109216657      -10.30142532695234
H            4.89747394270809       10.58204181593436      -10.06460696251812
H            5.66142732138413       11.41648479197304      -12.42029182534952
H            6.43506260958289        9.83192723357949      -12.57410558753934
H            4.08638704254852       10.03914488954352      -13.57786541115280
H            3.47275067142703       10.21500497932683      -11.93528878231942
H            4.84736091473966        7.77569843909268      -13.13051599196490
H            4.58953831342924        7.98239908204878      -11.38407596721676
H            3.15224423155719        6.20560269787233      -11.34343248046429
H            3.10504144319738        5.89161318363182      -13.09151729919244
H            0.71573526866026        6.45105451445741      -13.17359175579585
H            0.73797309498570        6.96905224888866      -11.48703930757981
H           -0.27424765125278        4.67940256033329      -11.89715758771409
H            1.34516568022466        4.09555505061644      -12.30833047367160
H            0.87290143652705        3.59604231900627       -9.95910123599341
H            2.14475113845294        4.82212034228308      -10.03971452563715
H           -1.47796539306308        4.70661859968137       -9.87910394981271
H           -1.42030873920679        6.01499296647421       -8.67823602868901
H           -0.39987285944967        3.16390422206039       -8.25629629108348
H           -0.26257767065919        4.47233717472370       -7.08166774896990
H           -2.68162916067717        4.65535880682363       -6.89259483965965
H           -2.92632061464315        3.49767000872987       -8.20803729710754
H           -2.01879645717267        1.67415198027432       -6.86972146757150
H           -3.28169968368228        2.50778945328912       -5.94143755624642
H            0.24219832224881        2.01199321550371       -6.26075189659807
H           -0.53413961893287        0.98836631806976       -5.02836919733693
H            1.34307809103375        3.33980624495438       -4.63909326194221
H            0.14120836996599        2.98397259328449       -3.40575734097540
H            1.03754454324303        0.64655603842911       -3.22474501126975
H            2.26947646234108        1.86161221586728       -2.86880790175114
H            1.93146208056134        0.47934140752158       -5.57287397446903
H            3.23575029777102        1.60443831136900       -5.10930360888633
H            4.65592365553872       -0.36516394858649       -5.66426624781854
H            3.23754016327035       -1.42770196540169       -5.83877870475427
H            5.31204672830025       -2.65722200022217       -5.10985701859397
H            5.34664336272969       -1.67480707023340       -3.63410329674014
H            3.09034291529427       -3.56539493087260       -4.42702713344664
H            3.10637065996268       -2.49421710832742       -3.01554766650136
H            3.75840870474978       -4.82356954717105       -2.41322833156093
H            5.09366557034187       -4.75186663457499       -3.58882401851445
H            6.55847011281777       -5.16337855394612       -1.95159449165844
H            5.53649758102024       -4.98963857701801       -0.50447868221001
H            7.80257572435190       -4.34587788841896        0.08403796706378
H            6.81897468126077       -2.87290236375554        0.05154609648393
H            8.63134530618512       -3.80858614009780       -2.22543322909410
H            7.64229253965250       -2.34450026685665       -2.21709908139706
H            9.93843588448870       -2.94521253251349       -0.29207553500920
H            8.89537687261174       -1.50335850683923       -0.24775579111967
H           11.89906804597347       -0.79996746210274       -2.25001753834931
H           11.72708048447768       -1.49363389919098       -0.61907682526947
H            9.93430693381817        0.34626888364847       -0.23129739092285
H           11.63709393495276        0.81103046651797       -0.21877335912199
H           10.31668807630108        2.44976274974385       -1.45317226558911
H           11.46630987959852        1.65742083827297       -2.52695503730553
H            9.73970911049389        0.41898001306698       -3.62643780560631
H            8.60277098053903        0.66406329547317       -2.28707064521490
H            8.97450941479139        1.66200809901418       -5.43653434182377
H            8.08377651680219        3.15835491608693       -5.08028046017658
H            6.52524573864476        1.39951918734604       -5.66940640462362
H            7.22769827597324        0.28472664480006       -4.49129946517540
H            6.46691560981833        1.65173743554373       -2.63496490558916
H            5.11905273274415        1.13729284425538       -3.64069945370092
H            4.91267266076562        3.46217894350795       -2.82089047221514
H            6.41336768056240        3.90976019138264       -3.66038244824051
H            5.21593203732916        5.50190755392569       -4.85265196026354
H            3.72937801334400        5.01966942739904       -4.00622342690636
H            4.09558432777729        4.75736948826685       -7.02967545698417
H            2.59097095992512        4.58884251509308       -6.13301466119048
H            4.27296442062448        7.13890837990926       -6.30126988070224
H            2.73757050555661        6.98945921936201       -5.43837597213815
H            1.50464299086137        6.77893833269744       -7.48482324201651
H            2.95794889281393        6.41821919648962       -8.42492972413286
H            2.66414813643710        9.87438177321893       -9.12393289434350
H            2.64649875470099        8.25009591308407       -9.86537779708652
H            0.34749459620843        7.88259896589737       -9.09257619789797
H            0.46106170099753        9.37192267742732      -10.03480236994511
H            0.41710152898710        9.18141480428480       -6.98039300677108
H            0.65223879206263       10.67384184165200       -7.88340133430840
H           -1.57357012822132       10.31579400193307       -8.99601280565961
H           -1.86022573282176        8.92397276081769       -7.93043675648587
H           -3.14866165233639       11.91920918479281       -6.20953127627637
H           -3.77003510771437       10.70576976424721       -7.35787725255790
H           -3.82615758284986       13.08127972431032       -8.22382638453402
H           -2.93981694993867       11.97039848116477       -9.25944521989098
H           -1.76154585844945       14.04809048031196       -7.36648171240348
H           -0.81743606335340       12.69610048601597       -7.98262017505225
H           -1.49428659346912       13.41198264794194      -10.34615069540834
H           -2.12564270026121       14.91075712294467       -9.62188015229520
H            0.66149654904728       12.89732676905173      -10.07254603532774
H            1.39299222513978       13.65342849218778       -8.63969267638509
H            2.29598666074299       15.47010764267965      -10.09556477077933
H            1.56391315963322       14.70034904904744      -11.49956821334576
H            3.86406729008807       14.07059755882289      -11.52462112363736
H            2.97412484716404       12.63243155300189      -11.01103992598626
H            4.22896146758921       14.52845734254801       -8.98958727157452
H            5.16953595898213       13.24466543428448       -9.78370604471738
H            5.47562279677674       12.02930202882105       -7.82361631646153
H            4.67820404653643       13.36419753093904       -6.96264084966479
H            3.54062180311378       10.52682625506381       -7.05122827957790
H            3.02138065810465       11.85003202918674       -6.01040375993425
H            5.75796482078222       10.47937136032977       -5.95314652511264
H            5.29451368204383       11.82180846543201       -4.90744249447694
H            3.66035151055386       10.44352086300935       -3.75288433214108
H            3.73337134395365        9.20308668942679       -5.02808913241478
H            4.36877231786950        7.55158581968270       -3.52413917750816
H            4.35731546505734        8.65404541787603       -2.13196037026662
H            6.94716498466201        7.46818951897896       -3.19148487367378
H            5.91405693256814        6.54627349634750       -2.08746141651500
H            7.68572783579148        7.66238719950834       -0.83110590835195
H            6.12838644115685        8.37363776635749       -0.39399446105454
H            6.59186338675946       10.25621423342482       -2.00135428250466
H            7.78059346470852       10.15678254324312       -0.67584481601283
H            9.18567415148423       11.40888989861900       -2.52234140122164
H            7.82621320907657       11.10473132188425       -3.63927689389103
H           10.10565990731561       11.25017232723454       -4.77209968146571
H           10.57187755462539        9.79405118425545       -3.88404747924949
H            8.34881112208334        8.79493041478294       -4.89425827861758
H            8.54952509685616       10.03841452754727       -6.12441126376893
H            9.60354553692316        7.88140332752429       -6.79245570121174
H           10.78532550691929        9.21469939202153       -6.70131387927516
H            9.69072694117095        7.39692393340868       -3.71392987415371
H            9.74894572458138        6.21955954742428       -5.05433792206070
H           12.08756881905230        6.84614080087648       -3.19175674356745
H           12.05481311278076        5.61612730895994       -4.45139849670820
H           10.10347987554332        4.52368752148390       -3.17508852755729
H           11.69072251668563        4.41996475017702       -2.42426426753484
H            9.65068039414070        6.56689958384168       -1.68051453301010
H           11.20118515823183        6.22279607968681       -0.88138079985527
H            7.83925281092106        5.39739561127179       -0.96539939209926
H            8.42465043431171        3.93442123116018       -1.79568110921038
H            8.01451096283079        4.14080397245245        1.22374387918917
H            8.53054987599507        2.71733886128955        0.30510742510005
H            6.31014663637823        2.92032871061826       -0.98483882809072
H            6.18769239627360        2.37094422791218        0.67984496620052
H            5.41712332563163        4.52330697367407        1.44239361426865
H            5.78970273411510        5.28883472207214       -0.11900963277453
H            3.12528405562260        5.10621019714894        1.20864257536895
H            3.45905058071512        5.90143126330720       -0.34692437074160
H            1.69471956973470        3.42919900647085       -0.02152088903548
H            1.92971737902558        4.34748185193336       -1.50802817308636
H            0.91249833569431        6.35536563105533       -0.41108718312971
H            0.60876239546586        5.39427884190023        1.03811322662329
H           -1.45051783688673        5.41199187090619       -0.25561501444846
H           -0.74206980852780        3.78303136012457       -0.31972849406508
H           -2.10622079360066        6.14005688220092       -2.50692903068214
H           -0.50695500348235        6.85573953568819       -2.16531043699869
H           -0.89953415814391        4.95838807351961       -4.48959504089694
H            0.39374329785890        6.14372323049408       -4.24771199180995
H           -1.07384466194826        6.92251804886323       -5.99740577274698
H           -2.51109603831893        6.70814891726321       -4.98684195067829
H           -1.86137525944560        8.52208272629619       -3.52088292984633
H           -1.82016926361161        9.09326566307296       -5.20274968896409
H           -0.22547796879814       10.68629910257146       -5.05124392279414
H            1.34455198810994       10.24896324661790       -4.33695683397222
H            0.32554797955187       11.73381558707528       -2.79722011314544
H           -1.26182955724548       10.98316273455602       -2.93759479141523
H           -0.12145761845416       10.49843012357627       -0.76571229736531
H           -0.60008555252923        9.05732196018713       -1.65532378729314
H            2.23319153020884       10.18242304736392       -1.60908620962071
H            1.68123820448905        8.72740976150040       -2.48339604673613
H            1.69039438809513        8.51292306894977        1.51553832549224
H            1.60843963078327       10.13671294504261        0.79745756734906
H            4.02450542156986        8.26540891653599        0.76399668722729
H            3.98690896367043        9.87027164642131        0.01693908403620
H            3.57973509814937        9.31960044434195        2.98884581740158
H            3.68181897016061       10.91835648869035        2.23336909265101
H            6.02804409891959       10.34031343037831        1.47026663066499
H            5.83602906216673       10.39812228039076        3.23999359844715
H            7.86525858141253        8.72027521573691        1.67315269679031
H            7.69671516940362        8.95982672323371        3.42995153946235
H            8.74733907137518        6.74954887215736        2.77522279532436
H            7.21772190230051        6.29790454092516        2.00626908507017
H            6.03001761600551        6.51011133461371        4.13938351061015
H            7.51906054422916        7.01766456795244        4.95436741212553
H            7.17229523535178        4.69041466580090        5.46614217494472
H            8.55596883207516        4.80719325002873        4.34751997977168
H            6.06653543081450        2.29811800066936        3.16019913276293
H            6.37701912453256        2.60941335054776        4.88708864372632
H            8.57799799554925        2.30267833247906        2.78726706432051
H            8.80164808325274        2.46642054073806        4.52429712265469
H            7.59745253650046        0.31105495226939        4.89877922583669
H            9.09705819847706        0.15839247745199        3.97575856664746
H            7.35733007499873       -1.28020761107574        3.04599227919590
H            6.26427251589905        0.09603111754266        2.82336723202678
H            7.85420413735697        0.87966257636293        1.32546331629463
