357
 energy: -474.188960841246 gnorm: 0.000157430065 xtb: 6.7.1 (edcfbbe)
O            7.80196709675267       -0.59867575623980        1.97406913374478
C            6.72086591370382       -1.00404220389168        1.84096381249717
N            5.73585730925182       -1.66101098113558        1.73049055812120
C            4.38367391323874       -1.64244367804541        1.49219472198155
C            3.63629746347262       -2.76855190351190        1.81265829630508
C            2.26912216228929       -2.76397838936984        1.60735478269856
C            1.63347209015190       -1.65508774692985        1.06662141201473
C            0.13870824835392       -1.60939851425785        0.88994683287385
C           -0.43840931472376       -0.48341227045648        1.70693789561343
C           -1.19966843657518        0.52114293636738        1.12554453865363
C           -1.69941518622542        1.56268537252340        1.88444268774666
C           -1.43399159070655        1.61298169771009        3.24781271758520
N           -1.94074398636371        2.66464274378928        3.97217895495440
C           -2.03946245440750        3.18282772086663        5.03938124298456
O           -2.24745187364287        3.82959307561591        5.97744584085743
C           -0.67011903204077        0.61165498797329        3.84444443673438
C           -0.18278373068086       -0.42279323647172        3.07305728217918
C            2.39823126562732       -0.54508937164299        0.72269554724661
C            3.76225075558807       -0.52893702265672        0.93012460149199
H            4.12754613575636       -3.63237636795065        2.23226034910224
H            1.68935130386527       -3.63670432652908        1.87395079014865
H           -0.10740065836988       -1.46073225597065       -0.16396463892517
H           -0.29921472576697       -2.55833726784047        1.20939057771024
H           -1.40738743682420        0.49109282437721        0.06557811119458
H           -2.29211021749938        2.34229979477118        1.43197099299658
H           -0.46625260200491        0.65438041286590        4.90451759269348
H            0.41229849137620       -1.19722178874275        3.53424483465839
H            1.91251456998520        0.32313648965047        0.30150837809083
H            4.35220538027112        0.34201045294438        0.68838762374077
O           15.63329281995508      -13.64275327963984       19.56272661879956
C           16.11853375760849      -13.54248168880384       20.87713981693273
C           15.14166301979361      -12.80652137425519       21.79217799576643
C           15.41213231841592      -13.00791882891532       23.27834454543423
C           14.32464034053608      -12.32227789797012       24.11516080347263
O           13.01040320817283      -12.74294558251681       23.83225150272158
C           12.58546885483005      -13.95856940972277       24.41758299623940
C           12.48988287555360      -15.14693153862962       23.45052530106930
C           11.32385564268778      -15.05056480616149       22.46504995623190
C           11.57975801615644      -14.02115231631040       21.36893354168077
O           10.47425914943903      -13.98810235743920       20.48607149511049
C           10.73561921919098      -13.39997057477912       19.23424356899408
C           10.90375145433828      -11.86990866856226       19.26576020280513
C           12.34648779778019      -11.37995959802974       19.41015825671716
C           13.15759689108122      -11.52380956182553       18.12595306055001
O           14.51255557610702      -11.24003438966028       18.41811412855354
C           15.32718601355977      -11.15415974876331       17.26438313946824
C           16.75636133115588      -10.83946655663893       17.68592547466422
C           17.66332173512173      -10.67636687619602       16.47033098989787
C           19.02652098414262      -10.12561258283626       16.87294423851085
O           19.78423529302420       -9.85227461369786       15.71683051979372
C           21.08904918197030       -9.41171409868123       16.01163133335449
C           21.82261848579840       -9.11636338872376       14.70913040776487
C           23.30150102264187       -8.82254386316259       14.94663125379252
C           24.02659528364783       -8.48094053341415       13.64852359891123
O           23.61678551079197       -7.19739836671999       13.22728090057958
C           24.06651337615770       -6.82080247691626       11.94740406460429
C           23.25227350895824       -7.44665629712145       10.80681651327192
C           21.77268548553473       -7.13075739280473       10.99098856894851
C           20.87160843075643       -7.85058947602390        9.99742627299874
O           19.53915264300032       -7.68550026462140       10.42780108504489
C           18.59672599294622       -8.42444869578523        9.68862882984747
C           17.28203620942696       -8.43847417805374       10.46189136035792
C           16.19613021022523       -9.24699069835158        9.75231234039046
C           15.46469006235113       -8.43325606826614        8.68909952557582
O           14.65097423640035       -7.47087764981393        9.32171486096104
C           14.13238408712914       -6.50503133317399        8.42977545168491
C           13.28877517001168       -5.51516544421481        9.22433952671798
C           12.69280056556195       -4.41204918885607        8.35218738222769
C           11.41851962467510       -4.83403610378301        7.62462379506421
O           11.10870311960466       -3.83891438392187        6.67628205213975
C            9.83450251095186       -3.98213962208570        6.07788475868269
C            9.79008184156708       -3.16285025076814        4.79028137554261
C           10.03804365571380       -1.67421938268045        5.03565693947704
C            8.79584661851436       -0.88832933344522        5.44366817975401
O            8.22062052890979       -1.39637655951920        6.62479047911705
C            7.22288989419217       -0.54558179709260        7.14516243557235
C            6.64945301078571       -1.14342528555270        8.42734503070476
C            7.47234350155288       -0.82639445254480        9.67583207358656
C            8.91853069743692       -1.30449923364104        9.59218587607431
O            9.70510608841330       -0.33415678703614        8.94147571323954
C           11.01901080779353       -0.78249563097574        8.71031654488249
C           11.80971043053532        0.32507915663322        8.02043536697442
C           13.15539760972667       -0.15643536104959        7.48160774738759
C           14.06508507836646       -0.70048479637421        8.58787225628217
O           15.37352054846253       -0.97619400306760        8.11736028265512
C           16.36597918304157       -0.01840760281764        8.42691381753076
C           17.17790478440311       -0.38839514696116        9.67739757631142
C           16.31192323339771       -0.48017529623834       10.93073904496150
C           17.11651383414990       -0.82340849264415       12.18946799942436
O           16.26859959479388       -1.11159753424988       13.28476619491739
C           16.17577825645344       -2.47289032336041       13.64810203423377
C           15.45017974474892       -3.35536623745558       12.62511308821986
C           13.98236913695846       -2.96249082089498       12.43269711320156
C           13.05571035759917       -3.74197044188478       13.37111801138444
O           11.68925757798410       -3.44547190777221       13.21895440179347
C           11.13503309557685       -3.82483906894893       11.97374955244960
C            9.65275668888542       -4.15749177323197       12.12735179726236
C            9.37730677577463       -5.30101900252926       13.10492435693992
C           10.12357551299223       -6.58839818866748       12.76395488128426
O            9.91423116505648       -6.93810036308638       11.41559043398136
C           10.69669333570431       -8.04514714836931       11.02442770140950
C           10.42666968758532       -8.35785010873578        9.55587761476481
C           11.50601087404078       -9.23976614562722        8.92820846395985
C           11.47964729191141      -10.69502943928603        9.41386044940595
O           11.63332102637153      -10.86973867985837       10.80377747095586
C           12.93673030235906      -10.62850094263162       11.28716839803914
C           12.93028785436341      -10.81808248537449       12.80123261983207
C           14.26342555377017      -10.46615877998408       13.45810168118541
C           14.52830370797116       -8.96358991616171       13.52491291798143
O           15.69277827488928       -8.74788701951945       14.29142856553854
C           16.12342671147117       -7.40362194492905       14.28268806465365
C           17.36036718582262       -7.26488748674795       15.16638574796468
C           17.98097468234857       -5.87094257060530       15.07615045885927
C           18.83854268712135       -5.69832428960396       13.82398332605893
O           19.01036669050162       -4.31394488595494       13.58794141943491
C           19.81101325982954       -4.00434553854537       12.46948879388140
C           19.15383233501241       -4.37955849810942       11.13751477850439
C           19.87711690750597       -3.78462054420548        9.93431278275463
C           19.21686392236850       -4.25822908577455        8.64323037993294
O           20.00201719241271       -3.86236956418797        7.53992205794164
C           19.65464235934192       -4.48841737226655        6.32649923177576
C           18.31623306031279       -4.02656014442786        5.74412581273290
C           18.34553948793135       -2.54059969124597        5.39672370416689
C           16.95291397701430       -2.00389344897391        5.08868427615480
O           16.41096864845970       -2.72471185476880        4.00024456571727
C           15.14797569216075       -2.26772975010059        3.57478827665498
C           13.98146600025742       -2.67001178086470        4.48484879633359
C           13.53635052090306       -4.12080701897152        4.32250112599473
C           14.63058192669554       -5.13533591705842        4.63224374086104
O           14.02857585391941       -6.41281701735729        4.70703727389025
C           14.94832056200958       -7.47397463664125        4.78019129757301
C           14.17025349368600       -8.76500880430779        5.01181325307243
C           15.08089253575853       -9.97631587010165        5.18943544694579
C           14.28583705286399      -11.20924042291146        5.60994506707818
O           13.49724501979383      -11.63720912583879        4.52255055681382
C           12.50588982673120      -12.58593009444922        4.84983294235813
C           11.21463146596144      -11.94318164219002        5.36490818979845
C           10.13835314106335      -12.98470389409828        5.65651347083700
C            8.81412791601902      -12.32632858316724        6.02951139976004
O            8.96840765855654      -11.63761173777810        7.25284572691185
C            7.88316506893391      -10.80555499280397        7.59804856428391
C            7.90960427091206       -9.45603983564688        6.87293243585844
C            6.82371227986693       -8.51547141581846        7.38276869228887
C            6.90122880721471       -7.15805886324615        6.69031905041521
O            5.78217527391545       -6.39030910403183        7.07497816744808
C            5.86133298417596       -5.02160441438600        6.75166373914846
C            5.77577743705114       -4.73064522708052        5.24951476750310
C            5.81451647082961       -3.23637723544877        4.94291085105465
C            4.52823213737691       -2.50203871664016        5.30803196838478
O            4.57167526423235       -1.22130065732439        4.71939248906861
C            3.44631976222650       -0.42967669586401        5.02112380809788
C            3.40932545548176        0.82402393158933        4.15191042258823
C            4.51001879928532        1.83798646143608        4.45955651163570
C            5.87430308280532        1.42886165076577        3.91127261802741
O            5.85615937925030        1.47113270382756        2.49322248996345
H           15.31488165480830      -12.76709270815420       19.27995191258577
H           16.26137927417699      -14.57213424973762       21.22014558891163
H           17.09941846109172      -13.04070398349143       20.89127135346779
H           15.16000734144770      -11.73977348133033       21.55420131966035
H           14.13911937219829      -13.17896478837184       21.58412104113184
H           16.37933344065769      -12.58412483866753       23.55531907757384
H           15.43455531812866      -14.07523103628017       23.50918007477419
H           14.54351518304540      -12.45587842149397       25.18520510125122
H           14.32453647391816      -11.25073715899506       23.89303889392699
H           11.58778395467432      -13.76559022859458       24.83140158013229
H           13.25315873975734      -14.22225127373572       25.24820613632427
H           12.35774884066396      -16.04409936061700       24.05938315593334
H           13.42461974582212      -15.25045976709051       22.89765979497377
H           11.16337839916465      -16.02268234455676       21.99478752531179
H           10.40837625587460      -14.78187125016889       22.99359278832649
H           12.48000714262409      -14.31134262217368       20.80531988602619
H           11.73681285577622      -13.03762889345918       21.82876267265075
H           11.62016645193736      -13.86915030952421       18.77831046230288
H            9.85929826153929      -13.65559362387374       18.63248099438312
H           10.31291314714614      -11.49483784319732       20.10319840118787
H           10.48259437804125      -11.45208235646213       18.34909150437455
H           12.85956755370334      -11.92649131984581       20.19788911617746
H           12.34285565591122      -10.32559975508263       19.69307794453136
H           13.07619068761855      -12.54246032620125       17.71799733470347
H           12.78746325986439      -10.82512886895754       17.36061274173098
H           14.95537864652448      -10.35579826121652       16.60647021870586
H           15.29200606401588      -12.10442223406611       16.71079671319962
H           17.12809458094308      -11.63883159592520       18.32836721827295
H           16.74409021808183       -9.91668874640533       18.26906192236071
H           17.20306517626735       -9.99655057409066       15.75349840729442
H           17.80150482593323      -11.63766516320575       15.97446197670290
H           18.90299648041581       -9.20058170013226       17.46013882965761
H           19.55937895135478      -10.85331913954317       17.50677684209659
H           21.05000818610324       -8.50863039523125       16.64202708472161
H           21.62594305545372      -10.19115041293484       16.57848185645977
H           21.35275497971381       -8.26170525233623       14.22292335119148
H           21.71261242783700       -9.98120744884679       14.05260578752856
H           23.40269537254100       -7.97570656909204       15.62670013496080
H           23.78328278220144       -9.69027758136020       15.40088407972593
H           23.79461934094369       -9.23760449223716       12.88699093753059
H           25.11715666334326       -8.48282701768850       13.80912329944611
H           25.13210963805973       -7.06642837045270       11.82851278511660
H           23.95371942378176       -5.73332930934345       11.91769369172993
H           23.61737584188994       -7.05000655502970        9.85822861175899
H           23.39997983634721       -8.52857970110010       10.79570145096044
H           21.46827507670708       -7.43186701831316       11.99419810628110
H           21.61524178436388       -6.05641304344626       10.90320325796277
H           21.00218186162382       -7.44624005247747        8.98070939015772
H           21.11958839965275       -8.92405050760218        9.96655751825368
H           18.95533911347765       -9.45721621851571        9.55140950638590
H           18.46714334281496       -7.98176638936659        8.68696862332620
H           17.48258740734411       -8.86411589873707       11.44630082152746
H           16.93572792154816       -7.41372053385612       10.60197298249198
H           15.46035475409164       -9.57931405612726       10.48327012236411
H           16.63256398792051      -10.13094630917637        9.28359747001060
H           16.18814639002123       -7.93348262529601        8.02749179322685
H           14.84189588794410       -9.09557176310255        8.06774941662038
H           14.96280750998931       -5.97675875575873        7.93547994550406
H           13.53274254952090       -6.99038179420497        7.64727886361324
H           13.93382619718405       -5.07535479165186        9.98759030165694
H           12.49101319840769       -6.05829601605812        9.73199550359324
H           12.44699433287309       -3.54958048124573        8.97348537764747
H           13.41953468372066       -4.08827853209717        7.60569969551842
H           11.56263745228438       -5.79926329833509        7.11356091520659
H           10.59457954543885       -4.94626001939161        8.34739057214385
H            9.05844212942771       -3.63499068343960        6.77316181339320
H            9.65243613992675       -5.04232787101253        5.84222257293108
H           10.56409764270411       -3.54402372760539        4.12252974156660
H            8.82053444913789       -3.30907384343954        4.31273541166678
H           10.79969977148966       -1.57758496403192        5.80699318278797
H           10.41091296821268       -1.21493596253912        4.11829068371740
H            8.05273341571521       -0.91802275601371        4.63006748529641
H            9.07807787215887        0.16547708020867        5.59872302482176
H            7.65123732716471        0.44620235276874        7.35125971413622
H            6.42357572673107       -0.42536280208678        6.39688567137998
H            6.58265470787947       -2.22529261807331        8.29717882615762
H            5.63896579951216       -0.75484844025634        8.57026472726404
H            6.99571868021741       -1.29954439847388       10.53640553501547
H            7.48778220574755        0.25188526991560        9.84144869657505
H            8.97160037141605       -2.25708251535705        9.04525473081904
H            9.31759459498246       -1.47201456874556       10.60683191144969
H           11.00006285742884       -1.68341838732851        8.07866812603515
H           11.48851528196910       -1.04723967870323        9.67309290757477
H           11.95631115373572        1.14732645511462        8.72364809290819
H           11.20372625683390        0.69987878909430        7.19435125739517
H           12.99631552233350       -0.93817026148451        6.73819494391970
H           13.66454759655184        0.67581038693079        6.98982767945582
H           13.66701636795020       -1.64907629877781        8.95794029534008
H           14.09115897425093        0.01404157769674        9.41606841331533
H           17.03928728090832        0.01439164952627        7.56329973300412
H           15.91665206414870        0.97394513068352        8.55188164402488
H           17.66150656924291       -1.35113597069188        9.50093345501312
H           17.95788972158124        0.36342567512495        9.81345498439059
H           15.79802880882077        0.46810498103041       11.10278598751263
H           15.55580722374738       -1.25005500950401       10.78349059998113
H           17.78904463013455       -1.66637786113566       11.99537127476220
H           17.72854061319063        0.03934666665424       12.47919567296076
H           17.17938873653209       -2.88432624235430       13.82556007250220
H           15.62342262148368       -2.46647473902177       14.59118338795838
H           15.97642956621998       -3.28687794160958       11.67147857593733
H           15.52208412016416       -4.39254451319943       12.96058687555862
H           13.67961924204696       -3.16275308144058       11.40224057486177
H           13.86510381778108       -1.89319982158442       12.61756856441786
H           13.28436797316608       -3.49964844022417       14.41190765611148
H           13.22237926840977       -4.82285877767921       13.21817970676656
H           11.24023344525739       -3.00303880148098       11.24854071283850
H           11.66574097494067       -4.69613510180890       11.57377510644719
H            9.12579827759542       -3.26947894167830       12.47891405028466
H            9.26809095334340       -4.42698318788728       11.14342661628034
H            9.67313021325704       -4.99756732789706       14.10970562584418
H            8.30526476487592       -5.50223903952125       13.10195656426171
H           11.20217508325635       -6.46111103371473       12.95017682004284
H            9.77538381686220       -7.40228048387466       13.42161380737713
H           10.46435034296939       -8.91636856562657       11.65130121118217
H           11.76357289423601       -7.80184667793535       11.16811601941506
H            9.45343600237301       -8.83976144132891        9.46729569749917
H           10.38217946978050       -7.40737546330155        9.01924493459335
H           11.35695531936798       -9.26635720920341        7.84613907777540
H           12.48510140594492       -8.79940338481116        9.12291889351848
H           12.26484510188217      -11.26013823362727        8.88433452370928
H           10.51302560172903      -11.14292551574623        9.17121642698063
H           13.64363992762171      -11.33294766729070       10.81760656955384
H           13.25448500424594       -9.60817167770027       11.04025302216388
H           12.13513844870407      -10.19874551258991       13.21969093237171
H           12.68211905924926      -11.85887111132548       13.01299040761464
H           15.08673443184113      -10.94554071821642       12.92615952289988
H           14.27027933151909      -10.84680135164472       14.47981370179196
H           13.67233126136717       -8.44928205534963       13.99356255654297
H           14.66349654704342       -8.54041834895448       12.51847011390940
H           16.34795081543653       -7.09841667340175       13.24936385992758
H           15.31802177913079       -6.75034177895619       14.65817376743132
H           18.09292316701145       -8.01781781628956       14.87190032190922
H           17.06426636840973       -7.46919725353115       16.19594440820402
H           18.59809619437685       -5.68229877288558       15.95477616409280
H           17.19581274670393       -5.11255862792720       15.05763832719468
H           18.34758793284341       -6.17324792416034       12.96634339308675
H           19.81965283834847       -6.17738166489765       13.95716408824491
H           20.78995181085698       -4.49759570825604       12.55974640060840
H           19.96116910922705       -2.92167701645619       12.52450050351546
H           18.11996755144002       -4.02621362149232       11.15350422652224
H           19.13863621960447       -5.46601089170281       11.03474425042620
H           19.86345973210843       -2.69379962723509        9.97052056031310
H           20.92163464408004       -4.09984341589260        9.92367584955834
H           18.20198762962969       -3.83982044710258        8.57283029711419
H           19.13122837695337       -5.35592367042327        8.66095460024819
H           20.46469617260946       -4.23577203502483        5.63739891690240
H           19.63824677645090       -5.58234036440050        6.46486741110421
H           17.51948203669528       -4.21310951286888        6.46639161553858
H           18.09611013413088       -4.60771264735414        4.84902452092498
H           18.99173625037199       -2.38602575784562        4.53149892818241
H           18.75705109221099       -1.98252092207188        6.23962128856200
H           16.31673459345862       -2.09514920776420        5.97982061377948
H           17.01222172406733       -0.93443249097600        4.82653273940758
H           15.00680971587381       -2.69765273387110        2.57887780874912
H           15.17169535090535       -1.17049934767037        3.48008203690015
H           13.13218233740363       -2.02435087468321        4.25557620236175
H           14.26354225952518       -2.49168638905282        5.52353634688553
H           13.18411066899387       -4.29030416716888        3.30316701888861
H           12.70584762879966       -4.30542068888390        5.00438700665115
H           15.40613861456553       -5.12162773864541        3.85486148813003
H           15.11530657008613       -4.89527001753071        5.59173826086695
H           15.65583708422099       -7.30562241681553        5.60984401315715
H           15.53638844961349       -7.53617360643932        3.85051587922695
H           13.49814449635790       -8.93395648021841        4.17143634776595
H           13.55533093348468       -8.63177618259053        5.90456234021438
H           15.58963433505354      -10.19683932166705        4.25082089690904
H           15.83599519752238       -9.77053854370301        5.95105307171691
H           14.97135941893585      -12.02011973706992        5.90859403868804
H           13.65497966076889      -10.96468275672323        6.47665381042872
H           12.29894851969778      -13.12129924966017        3.91810890490728
H           12.89273816605447      -13.30662839020895        5.58431448766011
H           11.41016184659744      -11.37901169504208        6.27745429145294
H           10.85850472886388      -11.24287288007155        4.60667484855365
H           10.45771931749197      -13.62120665880028        6.48250140164955
H            9.97795199833889      -13.61198869429011        4.77766549877198
H            8.02628049849771      -13.08971175591325        6.13393902257431
H            8.51375674531862      -11.63581358936020        5.23012249236679
H            6.93075767094602      -11.32015903288161        7.40666782024186
H            7.97587256995281      -10.64393029610194        8.67582669131491
H            7.77541268894081       -9.61149774754854        5.80033180197370
H            8.89198410495077       -9.00506709857215        7.02382238871710
H            5.83681455146307       -8.94038220230769        7.19403867182681
H            6.92301339228789       -8.36858918168844        8.45886733857875
H            6.91384086484770       -7.30395359020185        5.59958793760731
H            7.82952279442126       -6.63955580482901        6.97597887505328
H            6.79480347096848       -4.59381821761812        7.14925312595556
H            5.01455771137973       -4.56699022712505        7.27085364399232
H            4.86008631261415       -5.17774124202344        4.85612061539065
H            6.62446992020960       -5.20392235198171        4.75165330539795
H            5.97654559058963       -3.08747951611684        3.87373381389700
H            6.64903914221225       -2.78196252785435        5.47577721191663
H            4.42185239838180       -2.41003056616179        6.39956061623317
H            3.65066672895465       -3.05078731196672        4.92709698190405
H            3.45874888852440       -0.15635741038737        6.09009312445932
H            2.53146309546470       -1.01611633112494        4.83632414873001
H            3.48819156917753        0.52801651695264        3.10708039753751
H            2.43550777847641        1.29516358418710        4.30131948297042
H            4.23927863474959        2.79481422596548        4.00934052942262
H            4.59949862383342        1.97699639914164        5.53877647692220
H            6.11569609451696        0.41466918205675        4.24731750387867
H            6.63420648092909        2.12135202945069        4.29717234505278
H            6.76735922554772        1.48290532234266        2.18317738503907
