45
 energy: -73.028192674609 gnorm: 0.000172578554 xtb: 6.7.1 (edcfbbe)
O            6.21792969493073        1.47953433609854       -1.82247207419687
C            5.48396680938067        0.87634455682783       -1.15739348840190
N            4.89498705451192        0.27871206255673       -0.31321524493977
C            3.72680132945405       -0.39405949709068       -0.03405507425623
C            3.14548036130317       -0.24069685837042        1.21845551876046
C            1.95060895003893       -0.87228992583036        1.49998965402360
C            1.32337599952075       -1.66847809405143        0.55145060481932
C           -0.03262315488409       -2.26822815173008        0.82096867325182
C           -1.06882161634824       -1.30935535901547        0.29440880360859
C           -1.58197410652668       -1.44981072692340       -0.98852955262292
C           -2.48155083005527       -0.53344696606767       -1.49859354171309
C           -2.88025676856460        0.54640684250465       -0.71980626404023
N           -3.76234223552459        1.45134330284900       -1.26256792680735
C           -4.36887723380439        2.46322409359946       -1.10501790663776
O           -5.02760964450683        3.41582078340466       -1.14864117908034
C           -2.38152002699280        0.69336770256662        0.57207388129441
C           -1.48032821883572       -0.22803666606892        1.06423410297438
C            1.93465231455821       -1.84585661554577       -0.68348887154050
C            3.13171141422369       -1.22505310992800       -0.97901612967126
H            3.62241762457936        0.39116746500045        1.95062108204109
H            1.49632957319573       -0.73539732915361        2.46952855809838
H           -0.12532755572378       -3.23205137943427        0.31776487976656
H           -0.16975291775622       -2.41415971402235        1.89315539345571
H           -1.27617813718684       -2.28669955205559       -1.59988262667134
H           -2.87713623254654       -0.64102505289910       -2.49681981198018
H           -2.70042270507977        1.53005808304390        1.17635056244040
H           -1.08664316826788       -0.10064456748630        2.06076780167817
H            1.46650063087937       -2.47515191573934       -1.42717764856085
H            3.60857667221223       -1.36759123575698       -1.93806711894321
O            3.15894942622620        2.00027294060819       -1.94815346216233
C            2.40640824767335        1.53499168355097       -3.05234593404750
C            1.11294832528049        2.31496492234646       -3.29571320731733
C            0.00378906327528        2.04419796007317       -2.27481533544686
C            0.25272340655875        2.63801888969537       -0.88245409411793
O            1.08377146692403        1.85441588423895       -0.07002170718389
H            3.40777524183458        2.91877789093588       -2.10690874478591
H            3.02848285579506        1.56740992005745       -3.95696829267980
H            2.17577152232634        0.49212539276689       -2.82354298972679
H            0.74561131032165        2.03571332866247       -4.28515069786085
H            1.33641438584827        3.38604542954470       -3.31673853805802
H           -0.92467295966036        2.46978006761011       -2.66065910459251
H           -0.14060482412679        0.96772383161607       -2.16319008700957
H           -0.69838415254636        2.70170927048406       -0.34727270798042
H            0.65519065579489        3.65891782057403       -0.98331714032816
H            1.93541515017101        1.75178798708653       -0.52703612890292
