352
 energy: -460.222490714443 gnorm: 0.000183208936 xtb: 6.7.1 (edcfbbe)
O           -4.17887072650888        1.06657875673375        0.80330237038357
C           -3.91931392986276        0.92300656730879       -0.31943282389888
N           -3.86472176541082        0.84125587239465       -1.50230631831919
C           -3.04475208772751        0.47180276749549       -2.59836504467253
C           -2.32947198315210       -0.86545451980382       -2.37583563503693
C           -1.34527954009986       -0.84193461375114       -1.20649985150018
C           -0.08728939911906       -0.02545478402273       -1.50018332585936
C            0.84511013866367        0.08391428521855       -0.29303605184423
C            0.31771127708892        1.02802746902581        0.79149448888982
N            0.14279043028542        2.35229904147756        0.31808076831956
C            0.60573579546999        3.21395154054812       -0.35180772317562
O            0.82038490761277        4.17924044458551       -0.96401366872437
H           -2.31859739500075        1.27086973338226       -2.78225330049975
H           -3.70270295569347        0.40213609290512       -3.46917628157312
H           -1.80042423054165       -1.12165682039721       -3.29516556097566
H           -3.08518919788011       -1.63251884712129       -2.19129148168870
H           -1.85452028417289       -0.44221462334906       -0.32735626815381
H           -1.05116239506043       -1.86823576692514       -0.97447587668731
H           -0.36048579504377        0.98318015129902       -1.81598952913729
H            0.45121303954954       -0.49751490006632       -2.32569200526696
H            0.99499525705195       -0.90200792940398        0.15114132565828
H            1.81323357399487        0.47053915378225       -0.61557745988514
H           -0.65804379475166        0.70426657989380        1.16382123387031
H            1.01995839162526        1.04213286898949        1.63205563025290
O            3.17875243039408        2.39951501496639       -0.43150980130076
C            4.09433674442510        2.94548113702760        0.48640801774443
C            4.63719256942783        4.29640193890151        0.03268362210305
C            5.48420152049824        4.98120155033314        1.10039044795345
C            6.21916474559553        6.20319803963125        0.53618153052783
O            5.39314316019476        7.19183532568989       -0.02718474154640
C            4.75407058774085        8.08160498587623        0.86888539273804
C            3.24329981293345        7.86317542194876        1.02135051775176
C            2.44003498200098        8.25860532563209       -0.21842834142204
C            2.61140264018916        7.25516737467172       -1.35477925971046
O            1.88043188931536        7.69384249071654       -2.48541096062672
C            1.56602026274153        6.68061866940259       -3.41129184921629
C            2.75516888741309        6.20781425760103       -4.26772597232286
C            3.54940310034086        5.02953300066925       -3.69896904888869
C            2.80368507331888        3.70277319868760       -3.79615614318530
O            3.62865629320974        2.68336616121462       -3.25684224587249
C            3.14774573599863        1.37744490117894       -3.50791221545655
C            4.16458449878174        0.37287703001359       -2.98012986365337
C            3.70412812429650       -1.06624220203449       -3.19111493410620
C            4.84518983683791       -2.03887607710994       -2.91550257713250
O            4.44095956638301       -3.35330410275176       -3.22154581994287
C            5.43296696203797       -4.30658623985112       -2.91805012037948
C            4.95052975708581       -5.68862842468380       -3.34040242270312
C            5.89787193493609       -6.78619452430684       -2.86246649294338
C            5.44928915065137       -8.16635566353053       -3.33311201688882
O            5.67138412098764       -8.25998934933301       -4.72397693954040
C            5.16044800453372       -9.42218322527086       -5.33178847701860
C            3.63996814735288       -9.38825296035686       -5.54159142689127
C            3.24292911120951       -8.10640019031395       -6.26390382453589
C            1.73771330356727       -7.93294850052403       -6.40720921538331
O            1.49912521979132       -6.61625605862794       -6.85157481701508
C            0.14291095518001       -6.24437719062983       -6.84634948080847
C            0.05887980313448       -4.73692374958754       -7.06269934399471
C           -1.37148719923008       -4.20914131650373       -6.96548988874870
C           -2.16254237972623       -4.43064288968832       -8.25079426905690
O           -1.64727599501036       -3.59172385160476       -9.25961229019349
C           -2.16924866301892       -3.87982063863947      -10.53987499927936
C           -1.53572870347617       -2.93318832484289      -11.55261851513764
C           -2.09774922004873       -3.11880746687408      -12.96068744157321
C           -3.43770762462633       -2.41713303077412      -13.15877558630693
O           -3.96005601359107       -2.78199799262719      -14.41505311432137
C           -5.14834617292094       -2.08815136631771      -14.73800561795352
C           -5.77954510323604       -2.71345986831956      -15.97841872322352
C           -4.88139637902079       -2.62055996423302      -17.21125382315394
C           -4.89698080929808       -1.26311714073504      -17.91156292620870
O           -4.47160213599181       -0.23158047666174      -17.04285700367823
C           -4.07246816981393        0.96823518176116      -17.67469570873056
C           -2.60016638666216        1.31077201393054      -17.41741645176540
C           -1.63035278196153        0.23071898368395      -17.90250218645566
C           -1.44735570419813       -0.86837201177743      -16.86062395619324
O           -0.81585612357276       -1.98109249396969      -17.46065613547414
C           -0.62013444026049       -3.03574530064326      -16.55112603228723
C            0.14931642480169       -4.15444557133640      -17.24506206819682
C            0.30229276774764       -5.39782243139998      -16.37090383976494
C            0.98568937233791       -5.08404432736067      -15.03279000358229
O            1.47207215043840       -6.23090644029370      -14.36439604489060
C            2.72559141062944       -6.71800877555977      -14.80939231030077
C            3.88860712418414       -6.29223085128030      -13.90240882426412
C            4.07397748758773       -4.77851584319568      -13.85212832475630
C            5.28263833639607       -4.35914834713577      -13.00888761074748
O            5.38261631762484       -2.95118522630922      -12.90186711175933
C            5.00441936680962       -2.40456732222429      -11.65887552407268
C            3.50280686928848       -2.48157001787487      -11.35949012551457
C            2.65024934463167       -1.74564724900715      -12.39654916378100
C            2.41591429254098       -0.28206645726495      -12.00957229924289
O            1.64991678200736        0.44960671114629      -12.93521119599473
C            0.31726041332780        0.00156203126574      -13.08537615906888
C           -0.59707388805368        1.16023438151895      -13.47718842037200
C           -0.61761781537376        2.29754749428941      -12.45464543546640
C           -1.02825813567702        1.85445157563650      -11.05302384700612
O           -2.26463754422724        1.17960974985170      -11.09184208877270
C           -2.59947631334168        0.60233641561796       -9.84868683407019
C           -3.97372414258071       -0.05125264631394       -9.95603678103579
C           -4.23655164655601       -1.07659393568510       -8.85407363552901
C           -4.44856548677455       -0.46019930591782       -7.46579317994218
O           -3.37429848949897        0.30821682614837       -6.97104098567662
C           -2.24485500659907       -0.43804726511576       -6.57614922292272
C           -1.17656226923259        0.53510519681467       -6.08565764712232
C            0.11465528575196       -0.15283119599968       -5.64727608181194
C            0.96187472497775       -0.65663389860376       -6.81273118407264
O            2.16967456482681       -1.16731735521005       -6.29432459755136
C            2.99067825040550       -1.75726484239179       -7.27936777584991
C            4.26645232023024       -2.28549789082787       -6.62869549497213
C            5.13686791785290       -3.05908000597066       -7.61900011952052
C            4.62211279108285       -4.47559831581925       -7.87220073412330
O            5.11403603183642       -4.91851197439819       -9.12383027182231
C            4.77968650122285       -6.25162110871835       -9.43971832021489
C            3.29526311590116       -6.44005859660600       -9.76577601711099
C            2.96363161766600       -7.85252639810093      -10.23499879147617
C            1.48445540200093       -7.94439197906441      -10.59965634332858
O            1.13961584147194       -9.29515470459439      -10.82968752792684
C           -0.24083667116734       -9.56280358305236      -10.76426707898245
C           -1.07019091034092       -8.88611197761867      -11.85892784784304
C           -0.62712615474575       -9.32698047638364      -13.25095515375479
C           -1.26924553965819       -8.48084878154648      -14.34259016520986
O           -2.67269519847061       -8.64238732527298      -14.29374705342750
C           -3.37450290787688       -7.98000772214463      -15.31969893175416
C           -3.53352992690830       -6.46761555856738      -15.11816166005585
C           -4.57101364445081       -6.08769943055599      -14.06477949988647
C           -4.25216751185130       -6.63839721338723      -12.67929842170962
O           -5.05646075622558       -5.95919660909475      -11.73586404185893
C           -4.98726645130558       -6.50577568962995      -10.44155696882127
C           -5.73669546575561       -5.58445495361910       -9.48533931885803
C           -5.64772922166141       -6.05374302302431       -8.03603090195583
C           -6.23868763799165       -5.02084589778741       -7.08080839019989
O           -7.63698507764415       -4.98267657803063       -7.25548573672818
C           -8.27241639244293       -3.86118939370731       -6.68198674121256
C           -8.24947488710985       -2.63477357729953       -7.59880825798230
C           -8.96922120369226       -1.44274171528719       -6.97535380847481
C           -9.07465217600642       -0.28247311541379       -7.95944320764600
O           -7.77816106347973        0.19172005805740       -8.25850257165846
C           -7.73075532757389        1.13840642963281       -9.30304105238785
C           -7.78382987010273        0.50187066233199      -10.69607126944004
C           -7.58293031117687        1.53793242985422      -11.79597490084891
C           -7.66523699228393        0.90503038767839      -13.18168416785674
O           -7.55197741169834        1.92790478396503      -14.14490142369465
C           -7.42872985098932        1.48307974080505      -15.47697821083705
C           -8.76023389332277        1.04546760141789      -16.10272990952420
C           -8.57997695591216        0.33223167380878      -17.43956523913510
C           -7.99123043239573        1.22295630609236      -18.52774078993357
O           -7.83026131726193        0.45182054331647      -19.69606969483758
C           -7.23349912896496        1.17079350098958      -20.75168996362721
C           -7.09425379236887        0.29852854480154      -21.99590857753052
C           -6.10913756299150       -0.85911873110772      -21.82698055794781
C           -6.74973300214906       -2.06083734541299      -21.13884909018188
O           -7.63772250028324       -2.67291538542141      -22.05481718745780
H            3.48483069015952        2.60056842213030       -1.33501253668355
H            3.55397006354539        3.04628187167543        1.43361022265244
H            4.93042166924986        2.24433946031179        0.64446514484118
H            5.23956359349058        4.14586910992567       -0.86777332945220
H            3.79749110153270        4.94100207806470       -0.22804772035126
H            6.23708927272018        4.28610965292746        1.47971987710540
H            4.85343028168572        5.28197435622640        1.93942682320142
H            6.85230020823611        6.64100527212678        1.32318595668993
H            6.86561614056341        5.88181446835320       -0.28659868415723
H            4.92177656982404        9.09047797907302        0.47121621397008
H            5.23180224512635        8.02093821996233        1.85543188008553
H            2.91397219778503        8.47531647037404        1.86400578191799
H            3.04305709503078        6.81875022727297        1.26564336499192
H            1.38018233138778        8.31711805025978        0.03638328971178
H            2.75366304673364        9.24322948320001       -0.56797323175219
H            2.22515681568834        6.27785615181958       -1.03419685085983
H            3.67749201800668        7.16736352652943       -1.59692895457653
H            1.10555625430755        5.82985495583278       -2.89309440603902
H            0.81682986627701        7.13831416033805       -4.06367811511815
H            3.42609255657903        7.06006167705095       -4.39090664734467
H            2.38313692574324        5.93222995755518       -5.25712261258550
H            3.80581825499601        5.20853714412287       -2.65751665495984
H            4.48353029618305        4.92735260433056       -4.25612866354845
H            1.85522731589738        3.73959467723855       -3.24380576059016
H            2.57706406430373        3.47364935309037       -4.84846801497729
H            3.01032234720874        1.23044991343610       -4.58893133001426
H            2.17427099649803        1.23690346355929       -3.01526729684024
H            4.33292875855136        0.55842401531897       -1.91856761830913
H            5.10868129510114        0.54184895679915       -3.50139500757942
H            3.35498115633886       -1.20366725890550       -4.21418948724185
H            2.87437314827283       -1.29713611048581       -2.52228864959576
H            5.72349334796972       -1.77266954678817       -3.52648889553376
H            5.14654047035929       -1.97754064272393       -1.85667446790113
H            6.37006883416746       -4.05504688949517       -3.44024791817080
H            5.64149020991237       -4.29369009992607       -1.83473146563295
H            4.87340719632450       -5.71978696640768       -4.42703740922095
H            3.95369636624306       -5.84522841310068       -2.92461039262043
H            6.89905567830907       -6.60136750563347       -3.25400021881564
H            5.94734277146878       -6.78476432634257       -1.77207209050772
H            4.38708385586195       -8.30976884949145       -3.09363242633012
H            6.02444250034025       -8.95147278223255       -2.81571562354613
H            5.43935182880055      -10.31326766242704       -4.74984684534500
H            5.65881087316449       -9.47015518699519       -6.30401678404175
H            3.34963548987333      -10.26501066272631       -6.12252849061960
H            3.12870727667197       -9.44282868593462       -4.57814899813493
H            3.62349305806147       -7.25002678398982       -5.70599249787381
H            3.70086753190031       -8.08756409128302       -7.25211860798144
H            1.32001563388984       -8.66241543725047       -7.11922330250315
H            1.24301773044852       -8.09053562814847       -5.43482116271940
H           -0.31289158400554       -6.50555449077523       -5.87708114612234
H           -0.40530742955623       -6.79397881514395       -7.62919560485734
H            0.68403570962563       -4.26116448176308       -6.30529832457582
H            0.46747729086703       -4.48869660895622       -8.04298194324041
H           -1.34399277061302       -3.13775863313473       -6.76987867475557
H           -1.89587113738548       -4.69352925398270       -6.13962937452900
H           -2.09158339660711       -5.48231688646440       -8.56688269438692
H           -3.22706348221054       -4.20262504782819       -8.08343184967031
H           -1.93895939421074       -4.92382165741548      -10.80565549887691
H           -3.26256235110647       -3.76925195497908      -10.53639075166559
H           -0.45970003987136       -3.11852422776909      -11.55461242783838
H           -1.70008391519521       -1.90699438188947      -11.22279255104169
H           -1.39764972472275       -2.71368595996510      -13.69190715051227
H           -2.23107463514425       -4.18026805921906      -13.17406207282587
H           -4.14772572791414       -2.71147003022589      -12.36927446625433
H           -3.29916897515701       -1.32542936585513      -13.10900349372911
H           -4.92014240280614       -1.02933405366759      -14.91843537777698
H           -5.85546310494754       -2.16022664128658      -13.89495565760048
H           -5.97350106468695       -3.76582952058959      -15.76319140344591
H           -6.73434482574486       -2.22002748542926      -16.16850593472780
H           -3.86300008218436       -2.86299803857948      -16.90989909465904
H           -5.20398917125272       -3.35877547688628      -17.94853434517139
H           -5.91061390958711       -1.04101042102448      -18.27946111136727
H           -4.23053136209859       -1.32250363631237      -18.78322595085132
H           -4.24832147483447        0.90278483847500      -18.75500968257726
H           -4.69692921704778        1.78008699411039      -17.27596986735431
H           -2.45451811251782        1.47067459790725      -16.34815685367467
H           -2.39398627245801        2.25112517488055      -17.93185969407553
H           -0.65710778539166        0.67285282138868      -18.12062398000200
H           -1.99565342952028       -0.22314324863008      -18.82487837942868
H           -2.41919497518176       -1.16591903824198      -16.44807304045437
H           -0.82937284204776       -0.49368728380728      -16.02869690566461
H           -1.59071616019453       -3.40658997305414      -16.18257607695075
H           -0.04921850950127       -2.66647893029830      -15.68384877067346
H            1.13152620231695       -3.77158809621356      -17.52846763577920
H           -0.38063629328012       -4.41429489254853      -18.16243418889658
H           -0.67501664198302       -5.84560771601513      -16.18686219549480
H            0.90369383042305       -6.13407801053288      -16.90868970196507
H            0.26714168995556       -4.63756021297604      -14.34025924692211
H            1.79403990860929       -4.36620868487846      -15.20878604607798
H            2.65060630475139       -7.81101341497736      -14.80119957088189
H            2.92130640446160       -6.39361697650389      -15.83739740047092
H            3.69693562612414       -6.66403213016356      -12.89528245175046
H            4.79877689301227       -6.76776916059496      -14.27396564278855
H            4.21255682825866       -4.38298045737289      -14.86107534480162
H            3.17835043528032       -4.32604830766627      -13.42861093977909
H            5.23310947655725       -4.81166906129785      -12.01258551567952
H            6.20213589806599       -4.70343629992198      -13.49772705701853
H            5.54997794068126       -2.91018102919959      -10.84888448369466
H            5.32394954798962       -1.36038419404398      -11.70890727964189
H            3.21521833793262       -3.53271109027629      -11.31630602137288
H            3.33117023499465       -2.06252527293095      -10.36600807039475
H            1.68048817762610       -2.24028106813663      -12.49184211266160
H            3.14795355541536       -1.78211872459768      -13.36723343431621
H            3.36941350161818        0.24824556351123      -11.95106114963107
H            1.93380440011312       -0.24859520534037      -11.01657704310369
H            0.26797714554971       -0.77187736101025      -13.86786716270837
H           -0.03756251459817       -0.44581950326020      -12.14993653152531
H           -0.26248192741706        1.56406217354034      -14.43397017667197
H           -1.60663962216862        0.76437469481645      -13.59499470009560
H            0.37657431167697        2.74089657663431      -12.38938481174183
H           -1.31817877391890        3.05831885946948      -12.80131008920969
H           -0.25848255761455        1.19406887823889      -10.62312744720584
H           -1.10325024762635        2.73602117099533      -10.39497592175143
H           -2.59706042685091        1.36609452854401       -9.05937793908869
H           -1.84027617991922       -0.15473373505913       -9.58647478898586
H           -4.74073847099090        0.72226099785773       -9.93471790987498
H           -4.02475009849173       -0.54836811587248      -10.92662041947748
H           -5.15073193174471       -1.62369381804381       -9.09540337694161
H           -3.41140940630431       -1.78999916050713       -8.82512322727216
H           -4.68128536309497       -1.26723680203396       -6.75110433048346
H           -5.30006753723078        0.22347638704419       -7.50003471650254
H           -2.52616951528918       -1.13635151860505       -5.76901597487228
H           -1.85700308211727       -1.02582126228457       -7.41724125420486
H           -0.96565455977219        1.24446630693476       -6.88729905790828
H           -1.59252046653584        1.09914170228449       -5.25024031340552
H           -0.10611834014753       -0.99768336434792       -4.99255762383296
H            0.72268155508287        0.55184151315221       -5.07914464612156
H            1.17333081735125        0.16956756629622       -7.51178687451527
H            0.43524345236428       -1.44425218972530       -7.37248047360731
H            2.44094813304831       -2.57267899232433       -7.77291517575507
H            3.24404630744711       -1.00832972544620       -8.04865227422987
H            3.99853303497107       -2.92294575372550       -5.78469991841619
H            4.82619546542450       -1.43362539739877       -6.24056862394915
H            6.15982110754394       -3.11377631400913       -7.24607397510153
H            5.16357486190230       -2.53300522285204       -8.57487960753334
H            3.52571495711760       -4.48123516746443       -7.87068631311064
H            4.96035949946583       -5.15835462031613       -7.07905632774606
H            5.07188706364784       -6.91563932828763       -8.61280148252696
H            5.39135770819149       -6.50078068835410      -10.31261027647480
H            3.01905041917611       -5.72431774459659      -10.54415120989153
H            2.70169681656830       -6.22219407239264       -8.87614769957595
H            3.56676294721249       -8.13125760653182      -11.10066041393927
H            3.17179051660001       -8.57433909875776       -9.44389855605473
H            1.28577277172795       -7.33489413789213      -11.49281309796410
H            0.88304722227292       -7.54634246642779       -9.76758802500941
H           -0.31932398579047      -10.64908692655380      -10.85524237962217
H           -0.63094830962373       -9.26328520814603       -9.77615000996454
H           -0.96554421696611       -7.80252964193720      -11.77483492935253
H           -2.12139354757071       -9.13437271010405      -11.71190794638717
H           -0.89247878297160      -10.37409534073195      -13.40178733583004
H            0.45603744528854       -9.22639438430000      -13.33145727805825
H           -0.98383365866830       -7.43024523354296      -14.19662692771647
H           -0.89623279902337       -8.79679913347053      -15.33019501165223
H           -4.36101773981810       -8.45201874852011      -15.34516148512228
H           -2.87472603976362       -8.16730051098866      -16.28357961590029
H           -3.82881753305808       -6.02447463096084      -16.07095195746169
H           -2.56906661097266       -6.03844085306451      -14.84121424857584
H           -5.55735830661345       -6.44394977172805      -14.36698765021704
H           -4.60954986123027       -5.00020613808571      -13.99422413531105
H           -4.44232283100636       -7.71921670369342      -12.63743435300059
H           -3.18867082312936       -6.47946943730139      -12.44025883595294
H           -3.93377761820904       -6.59718200969976      -10.12673742197999
H           -5.42536800973581       -7.51660346628031      -10.42964811556761
H           -6.78169530925282       -5.52599975448103       -9.78694429409641
H           -5.30963155225960       -4.58333170154629       -9.57655646636747
H           -6.19629810917089       -6.98819575622633       -7.91668391214518
H           -4.60531576632907       -6.22795968863363       -7.76105661875129
H           -6.00590897062780       -5.29173403171875       -6.03716007631039
H           -5.79372705138989       -4.03547502175242       -7.28025275752256
H           -9.30826706408721       -4.17014247074165       -6.51249239714091
H           -7.81998185128573       -3.61981743001840       -5.70959595675027
H           -7.22093615483232       -2.34501343484743       -7.81693877692148
H           -8.72816610719430       -2.90656908966850       -8.54164264445073
H           -8.42545250290325       -1.10608437092016       -6.09194519050898
H           -9.97718790294435       -1.73173894280235       -6.67216343600082
H           -9.67314137185782        0.53294601649544       -7.52237660038683
H           -9.58233006492914       -0.62497433265298       -8.87118313002058
H           -8.54386711096580        1.86985743611363       -9.19154494239600
H           -6.77894263658225        1.66173889015849       -9.17556957646595
H           -8.74810561683494        0.00914753740250      -10.83816626461453
H           -7.00633529001673       -0.26195345028235      -10.75677596772560
H           -8.34784730288314        2.31292719835973      -11.72730245449591
H           -6.61036599288165        2.01962747717080      -11.68952310539449
H           -8.62221587650075        0.37109054344317      -13.28667419340213
H           -6.85310925205922        0.17338703665500      -13.31497194551065
H           -6.70162326312265        0.65975138933584      -15.53584222602895
H           -7.02815847754554        2.34452214210944      -16.01700509674345
H           -9.40093719293406        1.92050375386491      -16.22472403677735
H           -9.26133706125282        0.36009380137263      -15.41654020099696
H           -9.54409813207201       -0.04030619450906      -17.79029143303914
H           -7.92036971786483       -0.52747444457929      -17.30748722996414
H           -7.01539264904151        1.62148512569580      -18.21269296314751
H           -8.65771080572986        2.07741222675890      -18.72715362608511
H           -6.24175396993663        1.53630463455047      -20.43428725612574
H           -7.85099377334418        2.05266485960791      -20.98953186371233
H           -8.06909110168598       -0.11053415002239      -22.25991034127319
H           -6.76105066421316        0.94559911139551      -22.80908023577858
H           -5.76834137203142       -1.18644012088118      -22.81025193815540
H           -5.24188694177491       -0.53418480099598      -21.25015510656877
H           -7.28737111038962       -1.72637084790229      -20.24548829158829
H           -5.96811343808897       -2.77624707043053      -20.83886744964783
H           -8.14381570669008       -3.34905743917482      -21.59481131343655
