ITEM: TIMESTEP
2000
ITEM: NUMBER OF ATOMS
396
ITEM: BOX BOUNDS pp pp pp
-1.3455374323682250e+01 1.3455374323682250e+01
-1.3455374323682250e+01 1.3455374323682250e+01
-1.3455374323682250e+01 1.3455374323682250e+01
ITEM: ATOMS id x y z xu yu zu vx vy vz fx fy fz
1 -7.39068 -12.6467 10.838 -7.39068 -12.6467 10.838 -0.0010252 -0.00249067 -0.000644582 -4.13618 8.4251 -110.906
2 -8.78874 -11.9494 10.8874 -8.78874 -11.9494 10.8874 -0.00223339 0.000470803 0.00336151 9.09217 35.7666 -48.0909
3 -9.71218 -12.9528 11.4146 -9.71218 -12.9528 11.4146 0.00356767 0.00851281 -0.00242664 7.18714 -58.9275 1.12934
4 -9.44577 -11.5482 9.4059 -9.44577 -11.5482 9.4059 0.00120362 -0.00223068 6.16596e-05 44.4975 -23.4566 21.6797
5 -9.36099 -10.0703 9.03963 -9.36099 -10.0703 9.03963 0.0009446 -0.00532212 0.00351671 -0.20629 50.4238 -14.9554
6 -9.33425 -9.78897 7.5711 -9.33425 -9.78897 7.5711 0.00242974 0.00715146 0.00208604 -1.20994 -21.7253 10.0742
7 -10.0363 -8.80319 6.94092 -10.0363 -8.80319 6.94092 0.000468739 -0.000419666 9.52408e-05 -11.4532 0.137797 16.5902
8 -10.8523 -8.13262 7.52684 -10.8523 -8.13262 7.52684 -0.00357484 0.00552805 -0.00194704 -9.54691 20.5654 -8.26077
9 -9.80252 -8.82828 5.60147 -9.80252 -8.82828 5.60147 -0.000400458 -0.0115325 0.00436747 25.2511 -24.5729 0.818428
10 -10.2919 -7.93273 4.61805 -10.2919 -7.93273 4.61805 -0.00460859 0.00167814 -0.00148938 -32.2114 5.12084 23.9849
11 -11.87 -8.0657 4.52232 -11.87 -8.0657 4.52232 -0.00490201 -0.00141612 -0.00995394 52.0285 2.90193 -8.48029
12 -12.3241 -9.42963 3.94551 -12.3241 -9.42963 3.94551 7.02926e-05 0.00199329 -0.00843338 26.3788 11.7111 -12.9615
13 -12.6023 -9.47068 2.40381 -12.6023 -9.47068 2.40381 0.002702 -0.000321643 0.000228635 58.0402 -4.32636 -4.19092
14 -11.3211 -9.37013 1.70387 -11.3211 -9.37013 1.70387 0.000735842 -0.00160415 0.00239894 -21.6817 45.8458 -0.453386
15 -10.4498 -10.438 1.60124 -10.4498 -10.438 1.60124 0.00088062 0.0052928 0.000918413 9.41903 -23.8864 -24.6524
16 -8.9976 -9.88297 1.38239 -8.9976 -9.88297 1.38239 0.000562331 -0.00401907 8.64321e-05 18.6151 -54.2415 26.1432
17 -7.99232 -11.0525 0.912478 -7.99232 -11.0525 0.912478 -0.000898072 -0.00383556 -0.000655169 -30.5542 37.0942 12.6852
18 -6.45213 -10.7586 1.19548 -6.45213 -10.7586 1.19548 0.0051443 0.00388895 -0.000389762 -9.3677 -16.143 -60.0885
19 -6.0887 -11.4377 2.36754 -6.0887 -11.4377 2.36754 0.00797076 0.0020718 0.000947016 20.9521 19.0819 40.0903
20 -6.01028 -10.602 3.59836 -6.01028 -10.602 3.59836 -0.00787826 -0.00433869 0.00327389 -29.1588 21.353 -13.1059
21 -6.07901 -11.5769 4.75815 -6.07901 -11.5769 4.75815 -0.0075465 -0.00978266 -0.00280952 6.1485 13.1014 25.906
22 -6.13823 -11.0038 6.24343 -6.13823 -11.0038 6.24343 -0.00226743 -0.00280879 -0.00373639 -10.6046 -18.3977 -5.09737
23 -5.04645 -10.0014 6.69452 -5.04645 -10.0014 6.69452 -0.00190599 0.000262321 -0.0059718 -17.2102 -8.36062 -6.55657
24 -5.67421 -8.84704 7.23367 -5.67421 -8.84704 7.23367 -0.00628884 5.87229e-05 0.000566559 -9.76771 12.8452 10.6814
25 -6.34321 -7.9396 6.33747 -6.34321 -7.9396 6.33747 -0.00377626 -0.00382303 -0.00488207 68.5357 31.928 -2.72502
26 -6.05289 -6.45136 6.83416 -6.05289 -6.45136 6.83416 -0.00337401 0.00155266 -0.00595873 -18.8209 0.0468644 -15.0817
27 -4.51586 -6.08413 6.97474 -4.51586 -6.08413 6.97474 -0.00740646 0.00630332 -0.00152571 -21.4143 4.12407 12.8393
28 -3.81412 -5.87371 5.68552 -3.81412 -5.87371 5.68552 -0.000979207 -0.00129573 -0.00133904 7.10491 -28.5609 -59.134
29 -2.61902 -6.69133 5.70273 -2.61902 -6.69133 5.70273 0.000335926 -0.00294338 -0.00435447 -21.2966 -4.12425 1.66043
30 -1.77048 -6.50298 4.59338 -1.77048 -6.50298 4.59338 0.000113088 -0.000504521 -0.00300988 31.0163 -0.772604 -5.52528
31 -1.06897 -7.8295 4.21963 -1.06897 -7.8295 4.21963 -0.000886362 -0.00147647 7.19135e-06 -8.91533 -31.1137 -41.9636
32 -0.80406 -8.88863 5.327 -0.80406 -8.88863 5.327 0.00121845 0.00732652 -0.00793371 -6.97301 -15.3255 33.9303
33 0.107299 -10.1595 4.90281 0.107299 -10.1595 4.90281 0.00022897 -0.00564076 0.00219058 -39.8407 77.338 0.490939
34 -0.360954 -10.6099 3.6499 -0.360954 -10.6099 3.6499 0.00428535 0.00737698 0.0062345 9.10744 -29.3471 -25.312
35 0.364312 -11.7456 3.02698 0.364312 -11.7456 3.02698 -0.000795029 -0.00367457 -0.00284546 -31.7967 34.4314 0.228792
36 -0.0169836 -11.7928 1.54419 -0.0169836 -11.7928 1.54419 -0.00522544 6.30321e-05 0.00503575 -5.00975 36.0095 -5.14422
37 -1.54135 -11.9263 1.29783 -1.54135 -11.9263 1.29783 0.00235204 0.000414705 -0.0091548 3.17303 -25.3119 -9.54333
38 -2.01492 -11.7711 -0.17908 -2.01492 -11.7711 -0.17908 -0.000890321 -0.00250558 0.00417975 -77.841 2.1715 -6.84438
39 -1.94346 -10.4279 -0.620245 -1.94346 -10.4279 -0.620245 -0.00527051 0.00124852 0.000534056 15.2067 24.0847 13.1492
40 -2.23258 -10.0707 -1.98733 -2.23258 -10.0707 -1.98733 -0.00290972 -0.000560152 0.00346042 18.8681 7.88893 4.27435
41 -3.75068 -10.0862 -2.30193 -3.75068 -10.0862 -2.30193 0.0027045 0.00271206 0.000197039 -26.6955 -53.0181 -49.3327
42 -3.9725 -9.8787 -3.91491 -3.9725 -9.8787 -3.91491 0.00137473 -0.00114061 -0.004383 22.7028 25.3864 49.1396
43 -5.35826 -10.0903 -4.44141 -5.35826 -10.0903 -4.44141 0.00375765 0.000208805 -0.00299834 3.29795 9.34645 -35.2091
44 -6.17413 -8.99388 -4.08014 -6.17413 -8.99388 -4.08014 0.00547198 0.00536371 0.000119321 2.90856 1.27492 23.2294
45 -7.33874 -8.91023 -4.86564 -7.33874 -8.91023 -4.86564 -0.000835594 0.00480987 -0.00373122 -35.8087 -3.54849 -15.1085
46 -8.19397 -7.69581 -4.37091 -8.19397 -7.69581 -4.37091 0.0014591 0.00363081 0.000940281 -5.94898 -15.9067 33.8907
47 -8.8 -7.83972 -2.89628 -8.8 -7.83972 -2.89628 -0.00185167 -0.000444271 0.00116693 1.39033 10.1771 -24.9436
48 -9.61628 -6.5444 -2.52987 -9.61628 -6.5444 -2.52987 0.00575081 0.0026586 6.91086e-05 29.0629 2.14037 7.2259
49 -10.2582 -6.83145 -1.28042 -10.2582 -6.83145 -1.28042 0.000346996 -0.00224357 -0.00506804 -5.15099 5.71666 1.65929
50 -10.9378 -5.67184 -0.782682 -10.9378 -5.67184 -0.782682 0.00745801 0.00103656 -0.000363165 -38.2316 -35.1376 -38.7295
51 -11.9924 -6.13187 0.272529 -11.9924 -6.13187 0.272529 0.000300617 -0.00142897 -0.00688683 16.047 34.0465 -2.22596
52 -12.0729 -5.14838 1.42799 -12.0729 -5.14838 1.42799 -0.00251431 0.00251521 0.00595313 0.889595 -6.26737 52.7506
53 -12.8265 -3.78054 1.21111 -12.8265 -3.78054 1.21111 -0.00769108 -0.00708676 -0.0056828 34.5527 -13.4144 -31.1315
54 -11.8527 -2.94579 0.456243 -11.8527 -2.94579 0.456243 0.00231932 -0.00529461 0.00235216 -62.8996 -30.6698 14.6512
55 -10.8825 -2.41959 1.17229 -10.8825 -2.41959 1.17229 -0.00579766 -0.00826273 0.00232431 59.396 30.2175 -50.1862
56 -10.8667 -2.15499 2.35319 -10.8667 -2.15499 2.35319 -0.00497083 -0.00115553 -0.00700722 -3.17559 -7.13985 13.6983
57 -9.85695 -2.10405 0.246979 -9.85695 -2.10405 0.246979 -0.000649957 0.00189546 0.0049377 21.0502 1.40511 -7.91976
58 -8.5036 -1.58277 0.57915 -8.5036 -1.58277 0.57915 -0.00914708 -0.00415516 -0.00268636 -10.0035 -12.5178 23.6421
59 -7.31049 -2.60149 0.647274 -7.31049 -2.60149 0.647274 0.00426278 -0.0050984 0.00214932 -24.4819 6.38674 -22.6171
60 -6.10564 -1.71198 1.06197 -6.10564 -1.71198 1.06197 -0.00810278 0.00224684 0.001343 2.02065 -22.8066 -3.14042
61 -7.24371 -3.22801 -0.806069 -7.24371 -3.22801 -0.806069 -0.00292971 0.000590521 -0.00193557 -18.7214 12.4829 10.3645
62 -6.17931 -4.29406 -0.919981 -6.17931 -4.29406 -0.919981 0.0014385 0.00496355 -0.000434987 18.3713 -11.6209 11.2921
63 -6.05349 -4.86275 -2.25003 -6.05349 -4.86275 -2.25003 -0.00242472 0.000113185 -0.000918015 -13.5552 -2.89552 -10.0123
64 -5.48226 -4.252 -3.31346 -5.48226 -4.252 -3.31346 -0.00985818 0.00708503 0.00850259 27.8187 -6.39344 -37.973
65 -4.86558 -3.20738 -3.30327 -4.86558 -3.20738 -3.30327 0.00306392 -0.00173707 -0.0028377 -7.17409 15.0775 19.6395
66 -5.39491 -5.13378 -4.36739 -5.39491 -5.13378 -4.36739 -0.000186425 0.00315728 -0.000599919 -23.7348 -2.19714 22.6264
67 -4.58333 -4.75908 -5.46092 -4.58333 -4.75908 -5.46092 -0.00478379 0.00290827 -0.007571 25.3655 6.05427 -16.5237
68 -4.77026 -5.77466 -6.62455 -4.77026 -5.77466 -6.62455 0.00168779 0.00278706 0.00474094 -21.2446 2.24005 -19.6576
69 -4.38854 -7.12162 -6.31737 -4.38854 -7.12162 -6.31737 0.011508 0.00373013 0.0035931 -0.717477 21.2581 -4.65085
70 -6.49309 -5.43257 0.0600314 -6.49309 -5.43257 0.0600314 0.00271346 0.00266423 0.00660973 26.8702 -40.6069 -15.9407
71 -6.65112 -5.06946 1.55232 -6.65112 -5.06946 1.55232 -0.00578425 -0.00313607 -0.00883915 25.4817 13.4276 18.8549
72 -5.20262 -4.93663 2.18756 -5.20262 -4.93663 2.18756 0.000767929 0.00113768 -0.00389885 -26.4698 26.2749 -18.8354
73 -7.23908 -6.24096 2.39628 -7.23908 -6.24096 2.39628 -0.00632345 -0.00012869 -0.00340778 -19.176 30.4742 -40.97
74 -7.5341 -3.72693 1.66742 -7.5341 -3.72693 1.66742 0.00591546 -0.00148621 0.00148339 -29.7728 -59.8238 -5.89981
75 -8.04477 -9.44142 9.64459 -8.04477 -9.44142 9.64459 0.00511071 0.00300174 0.00599595 46.891 -16.1991 -12.9926
76 -8.09017 -9.40413 11.2552 -8.09017 -9.40413 11.2552 0.00119901 -0.000529839 0.00374456 -0.340614 35.2198 -17.116
77 -8.99073 -8.17032 11.7195 -8.99073 -8.17032 11.7195 0.000473304 -0.00458192 0.00177976 12.9293 5.06928 21.5184
78 -6.66412 -9.19836 11.8731 -6.66412 -9.19836 11.8731 0.00598234 0.00641463 0.00836197 12.2087 -0.91647 55.6736
79 -6.08349 -7.87634 11.6772 -6.08349 -7.87634 11.6772 0.00789995 0.00250485 -0.00722397 -47.8454 -11.4357 11.8746
80 -5.30304 -7.15288 11.2053 -5.30304 -7.15288 11.2053 -0.00214887 -0.00415763 0.00385393 57.9941 23.6358 -27.3141
81 -4.37842 -6.58458 10.7351 -4.37842 -6.58458 10.7351 0.00255025 -0.0015713 -0.00370008 -20.3584 0.104786 5.88022
82 -8.77486 -10.6836 11.8151 -8.77486 -10.6836 11.8151 0.00222736 0.00113292 0.00551954 -33.5273 -3.52918 -43.8896
83 -6.81369 -12.652 11.7066 -6.81369 -12.652 11.7066 0.0124301 0.00107673 0.0162539 8.87694 -9.23309 43.0795
84 -7.57747 13.2285 10.3666 -7.57747 -13.6823 10.3666 0.00969113 0.0278357 0.0230042 24.5227 32.2102 21.3247
85 -6.71922 -12.0491 10.1145 -6.71922 -12.0491 10.1145 0.0331451 -0.00474994 -0.00108523 -28.4844 -27.6766 24.516
86 -9.68003 12.9864 10.8078 -9.68003 -13.9244 10.8078 -0.0335562 0.00113393 0.00663012 -6.54806 30.9158 17.8763
87 -10.7032 -12.5546 11.4037 -10.7032 -12.5546 11.4037 0.0317756 0.00723195 0.00639959 -24.2181 0.627362 9.49093
88 -9.38263 -13.19 12.4239 -9.38263 -13.19 12.4239 0.0108425 0.00912075 -0.00294849 -7.54876 -4.61463 9.97434
89 -9.00025 -12.0962 8.56566 -9.00025 -12.0962 8.56566 -0.00485309 -0.0286698 0.00831283 9.46583 -6.32824 8.87347
90 -10.4551 -11.9071 9.37494 -10.4551 -11.9071 9.37494 -0.00268445 -0.0244326 -0.00367888 -22.3331 5.75352 -6.47275
91 -10.2905 -9.57518 9.40679 -10.2905 -9.57518 9.40679 -0.0216089 0.0123973 0.00792764 17.3785 -4.61755 7.68519
92 -8.66317 -10.2809 7.02091 -8.66317 -10.2809 7.02091 -0.0146719 0.0115911 -0.012996 6.76979 -7.3414 -9.55465
93 -9.94809 -6.92357 4.85308 -9.94809 -6.92357 4.85308 -0.00480651 0.0233495 0.00854369 -6.81954 6.48178 2.69995
94 -9.85969 -8.17693 3.67759 -9.85969 -8.17693 3.67759 -0.0121371 0.0232104 -0.0249426 7.88944 -5.88886 -22.4786
95 -12.1367 -7.20606 3.95168 -12.1367 -7.20606 3.95168 0.0168814 0.00170303 -0.0041542 -19.4858 8.47882 -20.9984
96 -12.3223 -7.89155 5.47649 -12.3223 -7.89155 5.47649 0.00606428 -0.00218607 0.00297535 -7.00692 0.258483 18.638
97 -11.589 -10.1937 4.24629 -11.589 -10.1937 4.24629 0.000989923 -0.00681042 0.00610999 -8.39746 -2.16148 -0.886496
98 -13.2074 -9.59319 4.47131 -13.2074 -9.59319 4.47131 -0.0325247 -0.00533006 -0.00502332 -38.0976 -19.5891 13.9094
99 -13.1716 -8.625 2.10868 -13.1716 -8.625 2.10868 -0.0108159 -0.0102311 0.00612282 -21.3067 18.6864 -2.67172
100 -13.0714 -10.3615 2.0364 -13.0714 -10.3615 2.0364 0.0146544 -0.00225152 0.00360241 -16.2484 -17.3283 6.03384
101 -10.7698 -11.1322 0.762748 -10.7698 -11.1322 0.762748 0.00463972 -0.00638564 -0.00941023 8.37805 16.2184 21.1693
102 -10.4754 -10.9341 2.54941 -10.4754 -10.9341 2.54941 -0.00349779 0.00614435 0.0090946 4.97217 -20.8254 11.1621
103 -8.64439 -9.49913 2.35862 -8.64439 -9.49913 2.35862 0.00394523 0.0186227 -0.000192299 -2.26717 2.76431 -10.6612
104 -8.96817 -9.11228 0.657568 -8.96817 -9.11228 0.657568 -0.0116939 -0.00987814 0.00914669 -2.42873 25.1012 -17.1268
105 -8.16735 -11.1144 -0.149464 -8.16735 -11.1144 -0.149464 -0.0347509 -0.0343275 -0.0240475 7.85845 0.0856432 -16.1987
106 -8.40587 -12.0214 1.23579 -8.40587 -12.0214 1.23579 -0.00983045 0.0103007 -0.000610659 18.2012 -0.418392 10.9583
107 -6.20429 -9.66416 1.18379 -6.20429 -9.66416 1.18379 -0.000550182 0.00954996 -0.00720751 -3.34395 -17.7574 5.01124
108 -5.90852 -11.2671 0.324319 -5.90852 -11.2671 0.324319 -0.0177047 0.00151624 0.00451705 -12.2791 20.5371 28.2076
109 -5.09482 -9.9749 3.70488 -5.09482 -9.9749 3.70488 0.00179783 -0.0152129 -0.00401913 -6.85697 -10.9439 -13.9307
110 -6.90937 -9.91112 3.62449 -6.90937 -9.91112 3.62449 -0.0241652 0.0104213 -0.0139623 23.0066 -16.9491 4.38302
111 -6.96762 -12.1759 4.57245 -6.96762 -12.1759 4.57245 -0.0177648 -0.0169213 0.012422 -2.8777 -11.232 4.60067
112 -5.19212 -12.2012 4.71801 -5.19212 -12.2012 4.71801 -0.0231523 0.0239285 -0.0222282 3.96149 -10.3602 -4.52041
113 -6.00912 -11.9079 6.89024 -6.00912 -11.9079 6.89024 0.0345845 0.008734 0.00914785 -9.81282 15.4793 -4.20613
114 -7.14271 -10.5706 6.4195 -7.14271 -10.5706 6.4195 -0.038628 -0.00871965 0.0248196 9.46105 -8.0782 -0.928969
115 -4.45788 -9.74713 5.81383 -4.45788 -9.74713 5.81383 0.0141091 0.0108023 -0.0191656 15.1144 2.7788 3.71847
116 -4.48643 -10.4412 7.53359 -4.48643 -10.4412 7.53359 0.0298915 -0.000777614 0.000184422 10.4207 -4.00853 -11.6301
117 -5.88017 -8.01936 5.34154 -5.88017 -8.01936 5.34154 -0.0116797 0.0134813 -0.00391863 -4.68589 -1.50252 0.930029
118 -7.35733 -8.13491 6.24018 -7.35733 -8.13491 6.24018 -0.00491848 -0.00900096 0.00369975 -43.3293 -9.52852 0.958031
119 -6.62204 -6.2058 7.74785 -6.62204 -6.2058 7.74785 0.0200499 0.00337569 0.0157322 10.2587 -11.189 3.17053
120 -6.56139 -5.75802 6.12326 -6.56139 -5.75802 6.12326 -0.00262672 0.0304746 -0.0233378 14.2043 -8.30068 3.34528
121 -3.95118 -6.90564 7.49163 -3.95118 -6.90564 7.49163 -0.00287022 -0.00164895 -0.0113867 -14.7055 21.9236 11.1461
122 -4.46556 -5.06013 7.42493 -4.46556 -5.06013 7.42493 -0.0168737 0.0202656 -0.00022631 4.33866 -24.1579 12.6153
123 -4.43748 -6.1978 4.79346 -4.43748 -6.1978 4.79346 -0.0033978 -0.0198766 -0.0133245 10.2793 8.63168 26.375
124 -3.52904 -4.83928 5.5292 -3.52904 -4.83928 5.5292 -0.00139422 -0.0194786 0.0190418 -1.52863 11.9556 3.16124
125 -2.27722 -6.19076 3.65659 -2.27722 -6.19076 3.65659 -0.0103491 0.00475053 0.0163531 -2.89092 8.41858 14.6408
126 -0.995018 -5.788 4.92204 -0.995018 -5.788 4.92204 -0.0061694 -0.0150635 -0.00289086 -4.03557 1.12599 -11.5321
127 -1.69776 -8.26669 3.36044 -1.69776 -8.26669 3.36044 -0.00195236 -0.0538803 0.0144687 24.1408 6.92197 32.3407
128 -0.06801 -7.65739 3.79341 -0.06801 -7.65739 3.79341 0.00546076 -0.0100804 0.0195255 -6.81264 10.9723 -3.56964
129 -1.79804 -9.34751 5.66202 -1.79804 -9.34751 5.66202 0.014804 0.0082013 0.0302791 28.3971 22.2314 -6.48559
130 -0.325333 -8.33036 6.20817 -0.325333 -8.33036 6.20817 0.0306864 -0.00991534 0.0223031 -16.5681 -24.4517 -25.6524
131 1.13768 -9.9083 4.93915 1.13768 -9.9083 4.93915 -0.0105027 0.0111762 0.0155166 26.6464 7.66606 -12.0849
132 -0.0596795 -10.8183 5.66108 -0.0596795 -10.8183 5.66108 0.00980322 0.0122893 -0.0122614 -7.37078 -50.8334 34.4724
133 1.4041 -11.6151 3.20171 1.4041 -11.6151 3.20171 -0.00708028 -0.0029181 -0.00885469 28.0611 -0.634857 -5.06347
134 0.0608186 -12.6891 3.3884 0.0608186 -12.6891 3.3884 0.00363325 0.0249216 0.0154362 -8.59834 -23.1608 25.8011
135 0.605306 -12.4722 0.974459 0.605306 -12.4722 0.974459 0.00650152 0.014887 -0.000608558 0.00367881 -13.6096 -3.59714
136 0.216921 -10.8096 1.15923 0.216921 -10.8096 1.15923 -0.00613618 -0.0278569 -0.0106748 8.58869 9.11058 -6.39267
137 -2.11143 -11.1994 1.86919 -2.11143 -11.1994 1.86919 -0.0293203 0.0215836 -0.0145808 -1.06894 4.40928 9.95059
138 -1.81459 -12.9332 1.65898 -1.81459 -12.9332 1.65898 -0.0228339 -0.00119027 -0.0164552 -4.90431 6.30153 -1.95587
139 -1.61378 -12.4385 -0.908882 -1.61378 -12.4385 -0.908882 0.00334457 0.0190399 0.0336437 21.9421 -16.8327 -5.71481
140 -3.14097 -11.9647 -0.20897 -3.14097 -11.9647 -0.20897 0.022448 -0.00115442 0.0217538 35.6206 -5.8074 8.11312
141 -1.71871 -10.7688 -2.65699 -1.71871 -10.7688 -2.65699 0.00550048 0.0117666 0.0211396 0.396543 -1.40143 -1.03636
142 -1.76409 -9.07113 -2.16006 -1.76409 -9.07113 -2.16006 -0.00243081 -0.00670817 -0.00107807 -14.9915 -10.2305 -3.01491
143 -4.17483 -11.1333 -2.11276 -4.17483 -11.1333 -2.11276 -0.01112 -0.0231938 -0.0107259 17.9362 32.665 0.0642458
144 -4.36718 -9.43547 -1.68649 -4.36718 -9.43547 -1.68649 -0.0129417 -0.0122127 -0.0241886 3.04713 13.3719 2.26726
145 -3.60166 -8.88272 -4.2379 -3.60166 -8.88272 -4.2379 -0.0443421 -0.0196941 0.0109328 -6.23556 -5.97339 8.48628
146 -3.33825 -10.5462 -4.4641 -3.33825 -10.5462 -4.4641 0.00991546 -0.00100484 -0.0101088 12.1255 -15.9044 -4.13331
147 -5.75743 -11.0912 -4.21228 -5.75743 -11.0912 -4.21228 0.0266997 -4.69527e-05 -0.00154309 -4.92957 6.04572 3.51663
148 -5.22933 -9.96143 -5.53618 -5.22933 -9.96143 -5.53618 0.0128857 -0.0163376 -0.0111157 -1.34987 -17.2027 6.08195
149 -7.08294 -8.73006 -5.94474 -7.08294 -8.73006 -5.94474 0.0017154 0.0118459 -0.0217129 -2.75454 -6.50445 18.2059
150 -7.93523 -9.85879 -4.75966 -7.93523 -9.85879 -4.75966 -0.00557245 -0.0122876 -0.013003 9.62018 17.9054 -5.0548
151 -7.57201 -6.81389 -4.37702 -7.57201 -6.81389 -4.37702 0.0142828 0.00336575 0.00587803 7.35604 11.4701 -3.87836
152 -9.024 -7.5074 -5.03935 -9.024 -7.5074 -5.03935 -0.00542783 0.00136013 -0.0252219 -5.40675 -0.321061 -11.6496
153 -9.54051 -8.67956 -2.85181 -9.54051 -8.67956 -2.85181 -0.00132324 0.0164866 0.018334 20.1454 5.22755 -0.169325
154 -7.94644 -7.99027 -2.19821 -7.94644 -7.99027 -2.19821 -0.0263954 0.0101335 0.0056663 -14.4993 -1.847 -0.960048
155 -8.95922 -5.63138 -2.39073 -8.95922 -5.63138 -2.39073 -0.0110962 0.0146508 0.0072179 -9.68927 -24.6689 -9.63335
156 -10.3535 -6.341 -3.32728 -10.3535 -6.341 -3.32728 0.0156762 0.00214212 -0.00270768 1.21177 -0.461829 6.02955
157 -10.2183 -5.0066 -0.38319 -10.2183 -5.0066 -0.38319 0.0206647 0.0179002 0.0134735 15.678 23.8773 10.8966
158 -11.4829 -5.26003 -1.68283 -11.4829 -5.26003 -1.68283 0.0325422 -0.0311578 -0.00958568 9.00784 7.59025 27.9037
159 -12.9797 -6.12947 -0.178984 -12.9797 -6.12947 -0.178984 0.00617035 -0.0202549 0.0129702 -7.28193 -15.9908 -5.06514
160 -11.7103 -7.06368 0.762319 -11.7103 -7.06368 0.762319 -0.0106576 0.0189505 0.0154096 -2.79868 -11.3131 -11.6694
161 -12.7023 -5.68446 2.18763 -12.7023 -5.68446 2.18763 -0.0164798 0.016614 -0.0128067 15.521 10.6026 -8.15259
162 -11.0271 -5.05079 1.86789 -11.0271 -5.05079 1.86789 -0.00577303 0.0258577 0.00734006 -30.7331 4.83928 -7.43341
163 13.1682 -4.06921 0.645465 -13.7425 -4.06921 0.645465 -0.0385502 -0.00845453 0.0117507 8.67713 18.8505 1.8416
164 -13.0719 -3.28711 2.16169 -13.0719 -3.28711 2.16169 -0.0252342 0.0181261 -0.0165895 -5.90847 -4.82161 0.45358
165 -9.96127 -2.20905 -0.776042 -9.96127 -2.20905 -0.776042 -0.0243198 0.00420717 0.000453861 -19.1578 -8.84586 26.6672
166 -8.56271 -1.08298 1.53557 -8.56271 -1.08298 1.53557 -0.00489725 -0.00216754 -0.00357113 -2.03529 8.31143 10.3607
167 -8.2374 -0.850458 -0.167729 -8.2374 -0.850458 -0.167729 -0.0274522 -0.0247124 0.0278604 -1.80257 13.0919 -7.99304
168 -6.09629 -0.824551 0.472665 -6.09629 -0.824551 0.472665 -0.0363932 0.00613312 -0.0181922 1.25526 21.8742 -11.1892
169 -5.19492 -2.22957 0.775014 -5.19492 -2.22957 0.775014 -0.0417433 0.00164896 -0.00847158 9.94705 2.32015 8.96125
170 -6.1179 -1.40862 2.13034 -6.1179 -1.40862 2.13034 0.00941914 0.0166261 0.00313592 2.05978 -6.77799 -8.27061
171 -7.10086 -2.3966 -1.51529 -7.10086 -2.3966 -1.51529 0.00465882 -0.00166396 0.00566605 3.77222 -8.06113 -3.73597
172 -8.22389 -3.72169 -1.04518 -8.22389 -3.72169 -1.04518 -0.010414 -0.00230937 0.00201688 15.7682 11.7479 1.36469
173 -5.19427 -3.90707 -0.646485 -5.19427 -3.90707 -0.646485 -0.0123174 -0.0130752 0.000841324 0.357463 6.82877 0.12297
174 -6.35 -5.80966 -2.43616 -6.35 -5.80966 -2.43616 -0.00964194 0.0188597 -0.00729978 -4.48238 -2.96495 6.24464
175 -3.52538 -4.72068 -5.08896 -3.52538 -4.72068 -5.08896 -0.00726915 0.0107781 -0.0195851 -13.5845 1.63229 -16.1342
176 -4.91023 -3.77546 -5.87319 -4.91023 -3.77546 -5.87319 -0.00265977 0.0165123 -0.0121566 7.94568 -7.71997 10.867
177 -4.36097 -5.46591 -7.58495 -4.36097 -5.46591 -7.58495 0.0271799 -0.017587 0.00770379 19.5755 7.7111 4.15083
178 -5.83222 -5.69932 -6.92194 -5.83222 -5.69932 -6.92194 0.00668437 0.00818818 -0.0030112 2.02349 -12.2216 11.9017
179 -5.01993 -7.30536 -5.62262 -5.01993 -7.30536 -5.62262 -0.0181915 0.0163734 0.0161461 -8.19687 -16.4891 19.1518
180 -5.66183 -6.18026 -0.113839 -5.66183 -6.18026 -0.113839 0.0390534 -0.00322547 0.000105289 -17.7044 14.0347 15.755
181 -7.36234 -5.98815 -0.270525 -7.36234 -5.98815 -0.270525 -0.00892292 0.0154746 0.0245196 -13.8854 1.19792 -3.32654
182 -5.22139 -4.65114 3.23779 -5.22139 -4.65114 3.23779 -0.00635868 0.0119168 -0.00346893 -3.93331 2.48226 5.93918
183 -4.77068 -4.10266 1.64008 -4.77068 -4.10266 1.64008 -0.0198014 0.00288278 -0.0131571 19.5568 -4.4953 3.37851
184 -4.60166 -5.8443 2.104 -4.60166 -5.8443 2.104 -0.00908866 0.000569093 0.00740321 4.06428 -2.44459 -5.9311
185 -6.62315 -7.08955 2.27679 -6.62315 -7.08955 2.27679 -0.000877996 -0.00433261 0.00534623 13.6816 -29.7067 -3.75902
186 -7.18326 -5.96467 3.43119 -7.18326 -5.96467 3.43119 -0.0114689 0.00727562 -0.0113456 -15.1156 0.273712 20.5611
187 -8.24965 -6.46873 1.99906 -8.24965 -6.46873 1.99906 -0.0244705 -0.0266592 -0.00444679 3.69514 -1.28313 15.6399
188 -8.59839 -4.09921 1.57565 -8.59839 -4.09921 1.57565 0.0181206 0.000915175 0.0201385 22.6191 13.571 -0.473882
189 -7.46753 -3.37015 2.65512 -7.46753 -3.37015 2.65512 0.00279348 -0.015158 -0.0367751 2.21041 15.6692 30.6788
190 -7.65341 -8.47615 9.17035 -7.65341 -8.47615 9.17035 -0.00890797 0.0310329 0.000858386 -29.8857 -20.5819 18.7622
191 -7.20428 -10.1386 9.25131 -7.20428 -10.1386 9.25131 0.00556896 0.0210426 -0.00847145 -32.7949 27.4668 26.1992
192 -9.13008 -8.20061 12.8473 -9.13008 -8.20061 12.8473 -0.00192557 0.0277619 0.00177838 3.99345 1.56315 -29.0252
193 -8.56603 -7.1408 11.4694 -8.56603 -7.1408 11.4694 -0.0307906 -0.0131994 -0.00717013 -13.6538 -31.3711 0.351405
194 -9.98567 -8.3037 11.2736 -9.98567 -8.3037 11.2736 -0.00609064 -0.0265568 0.00617052 -0.426376 11.4247 0.291177
195 -5.95747 -9.85577 11.4394 -5.95747 -9.85577 11.4394 -0.0120402 -0.00476249 -0.000229661 10.2915 -28.7365 -12.983
196 -6.62319 -9.39516 13.0072 -6.62319 -9.39516 13.0072 -0.019761 0.00042006 0.00563183 -11.4394 2.49904 -40.8448
197 -9.87498 -10.4509 11.8028 -9.87498 -10.4509 11.8028 0.0197529 0.0145121 -0.0137335 19.4599 -2.14573 21.5917
198 -8.40753 -10.9296 12.7846 -8.40753 -10.9296 12.7846 -0.000574755 0.00404109 0.0238891 0.626089 -3.42843 25.7817
199 -2.00854 8.65334 9.44875 -2.00854 8.65334 -17.462 -0.00300648 0.00959897 0.00725726 -48.029 -31.6778 -21.7055
200 -2.15404 9.54727 8.17096 -2.15404 9.54727 -18.7398 0.00703535 -0.00627163 -0.00367355 -12.6421 38.2166 25.7772
201 -1.09363 8.95074 7.23504 -1.09363 8.95074 -19.6757 -0.00166623 0.00679376 -0.0122083 2.50133 -0.590987 -36.6208
202 -1.86216 11.0775 8.56047 -1.86216 11.0775 -18.3503 0.000181997 0.00266949 -0.00440243 28.8857 -19.3696 -20.5817
203 -3.06782 12.1046 8.86177 -3.06782 12.1046 -18.049 0.00425222 -0.00353902 0.0048051 37.4179 -37.5502 -20.4555
204 -2.56575 13.0255 9.87375 -2.56575 13.0255 -17.037 0.00573223 -0.00810663 -0.00136816 -16.1068 -8.412 -15.3311
205 -3.02727 -12.6439 10.1502 -3.02727 14.2669 -16.7606 0.00187148 0.00229505 -0.0064936 -6.20012 -2.94361 3.9357
206 -4.21636 -12.3571 10.0635 -4.21636 14.5537 -16.8472 -0.00373772 0.00230978 -0.00104908 18.7118 21.5174 3.49516
207 -1.9716 -11.9022 10.6698 -1.9716 15.0085 -16.241 0.00034555 0.000503159 -0.00385631 -21.9228 17.55 -0.17742
208 -2.14072 -10.5669 11.2902 -2.14072 16.3438 -15.6205 -0.00788197 -0.00129025 -0.000556771 -42.5608 -53.7417 -21.896
209 -2.58415 -9.50849 10.3088 -2.58415 17.4023 -16.6019 0.0035102 0.00020515 0.00520779 -2.18914 28.2992 1.31481
210 -1.60333 -9.28954 9.17264 -1.60333 17.6212 -17.7381 -0.00808452 0.000266571 -0.00459126 5.3191 -47.9404 -9.43093
211 -0.459323 -8.28344 9.45177 -0.459323 18.6273 -17.459 -0.00379812 0.000519396 -0.000742319 3.62491 -13.1176 22.4294
212 0.460472 -8.82828 10.4522 0.460472 18.0825 -16.4586 -0.00733928 -0.00129746 0.00493192 -18.1282 -11.338 13.3295
213 1.30144 -9.9187 10.0497 1.30144 16.9921 -16.8611 -0.00487837 0.00694987 -0.000959343 -0.444998 54.9258 -56.1933
214 1.78002 -10.7646 11.1679 1.78002 16.1462 -15.7429 0.000563959 0.00747624 0.0011847 -39.6932 15.1928 49.0101
215 2.88492 -11.7358 10.7539 2.88492 15.1749 -16.1569 0.00091867 -0.00142721 0.000222705 12.0135 18.4857 16.9306
216 3.56061 -12.389 11.9608 3.56061 14.5218 -14.9499 0.00278842 -0.00742548 0.00749067 -34.6343 -11.4753 2.8538
217 2.76287 13.4359 12.4287 2.76287 13.4359 -14.482 0.00586592 0.00125779 0.011347 -18.7449 -12.2897 15.0757
218 2.12367 -13.3156 -13.1518 2.12367 13.5951 -13.1518 0.000724108 -0.000414139 -0.00415618 14.1184 -21.6691 -10.0855
219 1.46491 12.1947 -12.737 1.46491 12.1947 -12.737 -0.00603703 0.000901744 -0.00135179 9.27203 -6.0752 -24.7683
220 0.150548 11.9521 13.4187 0.150548 11.9521 -13.4921 -0.000178683 -0.00471919 0.00538105 -11.2197 -10.7981 -5.87177
221 -0.941213 13.0437 -13.147 -0.941213 13.0437 -13.147 -0.000944548 0.00143728 -0.00709839 21.5491 -17.5663 -15.0588
222 -2.11131 12.5372 13.2133 -2.11131 12.5372 -13.6975 -0.00615056 0.00356948 0.00168305 -58.837 24.4624 -4.3865
223 -3.3527 13.3326 -13.3528 -3.3527 13.3326 -13.3528 -0.00583399 -0.00074766 0.0028027 21.5417 -29.3309 36.66
224 -4.62137 12.4836 13.1485 -4.62137 12.4836 -13.7622 0.00703341 0.00716922 0.00145336 31.0468 -7.70675 -1.27814
225 -4.54701 10.9992 -13.3218 -4.54701 10.9992 -13.3218 0.0048579 0.00268239 0.000792834 -17.1876 19.0967 58.8723
226 -5.08512 10.7705 -11.8248 -5.08512 10.7705 -11.8248 0.00889659 -0.000458551 0.00354553 61.9235 -5.08586 -43.6676
227 -4.27839 11.5749 -10.9891 -4.27839 11.5749 -10.9891 -0.00175145 0.000793849 0.00156758 3.76583 12.754 25.221
228 -4.33882 11.1683 -9.60511 -4.33882 11.1683 -9.60511 0.000974294 0.00347064 6.73413e-06 26.5277 -16.1891 4.64913
229 -3.69902 12.176 -8.62914 -3.69902 12.176 -8.62914 0.00295327 -0.00754184 -0.00171317 -8.82969 17.5612 -3.34501
230 -2.1533 12.0975 -8.71605 -2.1533 12.0975 -8.71605 -0.00684362 -0.00090869 0.00348532 -1.71482 -23.9749 13.6646
231 -1.44062 12.8356 -7.59713 -1.44062 12.8356 -7.59713 -0.00279147 -0.00137953 -0.00109181 -2.78765 26.0462 44.3466
232 -0.135351 13.1722 -8.0644 -0.135351 13.1722 -8.0644 0.00340907 0.000698018 -0.00294271 20.8958 -22.196 -40.0805
233 0.839939 -12.9994 -7.33626 0.839939 13.9114 -7.33626 0.000137451 -0.00123376 0.000336984 20.1112 9.6357 46.051
234 2.18399 -12.7522 -8.07633 2.18399 14.1586 -8.07633 -0.00129605 0.00425345 -0.00699784 -54.4903 7.59908 -38.0949
235 2.84858 12.87 -8.62015 2.84858 12.87 -8.62015 0.000325851 0.0044931 0.00163294 -15.0884 20.335 36.346
236 4.25659 13.2521 -9.10823 4.25659 13.2521 -9.10823 0.00486104 -0.00843662 -0.00162202 11.3782 -32.5276 -9.89916
237 4.20522 -12.6102 -10.0449 4.20522 14.3006 -10.0449 0.00213023 0.00105734 0.00204923 -2.24341 7.33685 -1.25477
238 5.50228 -12.3719 -10.5792 5.50228 14.5389 -10.5792 0.00156555 0.00470998 0.00124599 11.0743 50.1698 -12.5925
239 5.38575 -11.101 -11.5558 5.38575 15.8098 -11.5558 0.00891796 -0.00223321 0.0074803 53.5665 -38.9487 -18.3621
240 6.7797 -10.6843 -12.2132 6.7797 16.2265 -12.2132 0.00109653 0.00615168 -0.0144131 -6.15257 -12.8354 55.7808
241 6.75999 -9.50486 -13.1318 6.75999 17.4059 -13.1318 -0.00362674 -0.00319087 -0.00236732 -12.8512 51.1433 16.7346
242 6.47695 -8.21603 -12.3958 6.47695 18.6947 -12.3958 0.00152466 0.000941997 0.00213911 -6.79201 -34.12 -34.3451
243 6.2371 -7.07627 -13.2875 6.2371 19.8345 -13.2875 0.00108064 0.00244932 0.00106376 17.3742 0.536467 7.97727
244 5.05349 -6.31609 -12.7417 5.05349 20.5947 -12.7417 0.00977707 -0.0019096 -0.000596447 7.25378 -9.32204 17.0154
245 3.72434 -7.08275 -12.9292 3.72434 19.828 -12.9292 0.00790331 -0.00173663 0.00189899 -5.85396 41.5869 -16.9332
246 2.51552 -6.31309 -12.3722 2.51552 20.5977 -12.3722 0.00313482 0.00159395 -0.00603457 17.9604 -14.3093 29.9978
247 1.32477 -6.78043 -12.988 1.32477 20.1303 -12.988 0.0110672 -0.0107875 -0.00477017 2.53028 14.9799 -5.5146
248 0.200735 -5.99727 -12.569 0.200735 20.9135 -12.569 -0.00403026 -0.00252092 -0.00953172 -58.4057 27.83 40.4955
249 -0.95665 -6.11975 13.2272 -0.95665 20.791 -13.6836 0.0018404 -0.000331861 0.00755446 2.50452 -24.7776 -5.42603
250 -2.38802 -5.62498 -13.3086 -2.38802 21.2858 -13.3086 0.00608983 0.00430488 0.00114877 23.5483 12.5256 -19.1104
251 -2.30296 -4.26471 -12.4925 -2.30296 22.646 -12.4925 0.000748843 0.00322035 -0.00459593 -29.234 -10.7381 -29.2262
252 -1.77297 -4.45203 -11.189 -1.77297 22.4587 -11.189 0.000528023 0.00332966 -0.0052923 19.8582 27.1143 -28.1031
253 -2.37994 -5.15526 -10.2997 -2.37994 21.7555 -10.2997 0.00281109 0.00138073 -0.00104345 33.2095 -46.2025 88.9704
254 -3.51646 -5.52214 -10.2633 -3.51646 21.3886 -10.2633 -0.000267597 -0.00236864 0.00206479 -36.0402 2.98189 -26.7631
255 -1.44172 -5.58421 -9.32204 -1.44172 21.3265 -9.32204 0.0020344 -0.00109762 -0.00235205 38.4885 30.2491 -0.0930134
256 -1.74241 -6.6056 -8.31379 -1.74241 20.3051 -8.31379 0.00559051 0.000752094 0.00493936 -22.1068 -22.9377 6.19031
257 -1.12498 -7.98277 -8.64171 -1.12498 18.928 -8.64171 -0.000157988 -0.00138271 0.0080277 16.7497 -18.0039 -21.7878
258 -1.43867 -8.94587 -7.48232 -1.43867 17.9649 -7.48232 -0.00258823 -0.00035495 0.00680233 7.26238 60.8179 0.854696
259 0.397589 -7.81628 -8.80943 0.397589 19.0945 -8.80943 -0.00528664 0.000938648 -0.00808746 14.6072 -9.92224 6.50231
260 1.21022 -9.0702 -9.24189 1.21022 17.8405 -9.24189 -0.00465992 0.0058252 -0.000571131 -2.74403 13.8293 -6.66997
261 2.68385 -8.76445 -9.25663 2.68385 18.1463 -9.25663 0.00100151 0.00139647 0.00812241 -34.0411 -14.2692 -7.7157
262 3.41807 -8.8364 -8.09714 3.41807 18.0743 -8.09714 0.00555196 -0.00464421 0.00942751 -61.9264 -1.74288 -31.8721
263 2.90797 -8.95902 -7.00208 2.90797 17.9517 -7.00208 -0.00109805 -0.00189615 -0.00224735 21.201 0.301337 18.5165
264 4.62765 -8.53244 -8.42697 4.62765 18.3783 -8.42697 -0.00146127 7.50718e-05 0.00599609 38.9793 17.2273 17.8452
265 5.60582 -8.30918 -7.39961 5.60582 18.6016 -7.39961 -0.00362537 -0.000170877 -0.00792964 38.8774 -20.1885 -10.4451
266 6.90249 -8.06997 -8.20471 6.90249 18.8408 -8.20471 0.0116609 -0.00277005 0.0036184 -26.2201 5.19674 -0.380005
267 7.20018 -9.14599 -9.06386 7.20018 17.7648 -9.06386 -0.00380931 -0.00511891 0.00287031 11.7772 -17.5244 -6.95858
268 0.666613 -9.46562 -10.6801 0.666613 17.4451 -10.6801 -0.00123812 -0.00852309 -0.0014413 -6.56555 -0.0263823 42.925
269 -0.897863 -9.77999 -10.6811 -0.897863 17.1308 -10.6811 -0.00486811 0.000226802 0.00116637 8.13527 -32.7602 3.19612
270 -1.18421 -11.2067 -10.0387 -1.18421 15.7041 -10.0387 0.00283724 -0.0013395 -0.000687419 37.1545 37.6424 1.98095
271 -1.46158 -10.064 -12.1296 -1.46158 16.8468 -12.1296 -0.00306242 -0.00212008 -0.00599433 -33.8697 13.3019 17.186
272 -1.69983 -8.60793 -9.96436 -1.69983 18.3028 -9.96436 -0.00120209 -0.00654808 -0.00224255 11.1601 10.9229 -33.1622
273 -4.311 11.345 9.2288 -4.311 11.345 -17.6819 0.00752456 -0.00212939 -0.00753317 13.9903 -31.9488 24.9864
274 -4.75003 10.138 8.29802 -4.75003 10.138 -18.6127 -7.79711e-05 0.00234106 0.00806618 -4.18712 14.0875 37.9424
275 -5.87179 10.5079 7.26876 -5.87179 10.5079 -19.642 -0.00818043 0.00226478 -0.000427371 -52.9771 -14.459 -7.27856
276 -5.37944 9.08989 9.31167 -5.37944 9.08989 -17.5991 -3.63488e-06 -0.000747181 0.00221141 -15.9085 -10.8479 1.73685
277 -6.41939 9.61575 10.2617 -6.41939 9.61575 -16.6491 -0.00316735 0.00111129 0.00580661 18.3029 11.4609 -6.69747
278 -7.52884 9.81377 10.6675 -7.52884 9.81377 -16.2432 0.00381558 -0.00952624 0.00248551 -15.2506 7.90727 6.28303
279 -8.55551 10.1416 11.1574 -8.55551 10.1416 -15.7533 0.00573671 -0.00613972 0.00371784 15.5408 -7.67742 -9.84804
280 -3.5498 9.53262 7.52403 -3.5498 9.53262 -19.3867 -0.0048179 0.00457685 0.00237154 -14.4506 -48.9211 -15.4717
281 -2.37245 7.60318 9.33817 -2.37245 7.60318 -17.5726 0.00178036 -0.00883805 0.027347 0.96131 16.2216 -9.6568
282 -1.02388 8.53235 9.72581 -1.02388 8.53235 -17.1849 -0.00678195 0.0161225 -0.00852635 47.7109 0.201379 18.4685
283 -2.50352 9.01577 10.304 -2.50352 9.01577 -16.6067 -0.0122032 0.0291322 0.0276275 -16.9535 20.051 22.3702
284 -0.208267 8.77241 7.84299 -0.208267 8.77241 -19.0678 -0.00320135 -0.0138486 -0.0159057 15.909 0.159987 -12.0213
285 -0.81583 9.57547 6.33575 -0.81583 9.57547 -20.575 0.0084256 -0.00177021 0.0193816 -9.2253 -6.65642 23.0406
286 -1.42646 7.96975 6.82548 -1.42646 7.96975 -20.0853 0.00327466 0.0118742 0.0235235 3.63991 9.37559 7.61709
287 -1.17521 11.0335 9.42245 -1.17521 11.0335 -17.4883 0.00474753 -0.0152283 0.00695989 -4.20275 5.46903 -0.583717
288 -1.19441 11.4244 7.72263 -1.19441 11.4244 -19.1881 -0.0220338 0.00898425 -0.00867252 -19.3157 10.5018 18.193
289 -3.254 12.6168 7.95003 -3.254 12.6168 -18.9607 0.00315403 -0.00349177 -0.0418099 -6.06175 18.2925 -19.7868
290 -1.64797 12.8127 10.14 -1.64797 12.8127 -16.7708 -0.0149279 -0.0205679 -0.0186865 33.4876 4.34389 15.0485
291 -2.98097 -10.6512 11.9867 -2.98097 16.2595 -14.924 -0.00198865 0.0107413 -0.0136875 9.26417 3.39389 14.4039
292 -1.22222 -10.31 11.7346 -1.22222 16.6007 -15.1762 -0.0092039 0.0274445 -0.0173859 23.0208 15.1348 22.2312
293 -2.65376 -8.54812 10.851 -2.65376 18.3626 -16.0597 -0.00952572 -0.00934092 -0.00424554 0.836015 -8.13089 0.315511
294 -3.6124 -9.63934 9.92225 -3.6124 17.2714 -16.9885 0.013534 0.00838671 7.4563e-05 6.93994 -11.315 2.93394
295 -1.28029 -10.29 8.73194 -1.28029 16.6207 -18.1788 -0.00280285 -0.0202777 0.00698189 -1.2425 30.589 14.2628
296 -2.24658 -8.90902 8.42796 -2.24658 18.0017 -18.4828 0.0298474 0.00728755 0.0128167 -8.26896 19.8785 -28.5663
297 -0.904596 -7.39078 9.9105 -0.904596 19.52 -17.0002 -0.0179914 0.0052503 0.0288398 0.672265 5.76292 -11.2126
298 0.042944 -8.06102 8.50864 0.042944 18.8497 -18.4021 -0.0160797 0.00038732 0.00765697 5.75194 6.2685 -0.241728
299 2.11249 -9.33914 9.57376 2.11249 17.5716 -17.337 -0.00893964 -0.0316083 0.00514856 9.37365 -22.6137 0.899953
300 0.798492 -10.4835 9.26818 0.798492 16.4273 -17.6426 0.0196051 -0.0155621 -0.0154161 2.11292 -13.1936 -0.747699
301 0.849903 -11.241 11.5841 0.849903 15.6697 -15.3267 0.0261018 0.00095284 -0.0119045 25.0417 -6.18196 -8.31786
302 2.07815 -10.0643 11.9812 2.07815 16.8465 -14.9295 0.0129638 0.0310669 -0.0016229 8.42647 -11.8376 -9.11981
303 3.7033 -11.1316 10.3164 3.7033 15.7792 -16.5943 0.00106456 0.000281419 0.0461856 -10.0872 -6.89284 -10.064
304 2.49228 -12.4731 10.0553 2.49228 14.4377 -16.8555 -0.0134858 0.00648476 0.0032718 3.40292 -4.73066 -7.3617
305 3.66085 -11.7 12.7838 3.66085 15.2108 -14.1269 0.0107051 -0.0151542 0.000861801 12.6305 16.3384 1.04566
306 4.48826 -12.7718 11.6074 4.48826 14.1389 -15.3034 -0.00766641 0.0168722 0.0233087 26.3245 -6.74665 0.645131
307 2.92197 -12.9909 -12.4537 2.92197 13.9199 -12.4537 -0.014648 -0.00114342 0.0353597 -12.8262 -6.16787 3.80535
308 1.32457 -12.5754 -13.1868 1.32457 14.3354 -13.1868 0.00362102 0.0315973 -4.4451e-05 4.1431 10.4807 0.225975
309 2.13814 11.3446 -13.0262 2.13814 11.3446 -13.0262 0.0220179 0.018446 0.00405542 -5.59634 16.6327 10.7173
310 1.17837 12.0743 -11.6888 1.17837 12.0743 -11.6888 0.00580579 0.00978905 0.0004483 13.0171 10.6377 8.0919
311 -0.246359 10.9192 -13.1877 -0.246359 10.9192 -13.1877 0.0176581 -0.00928433 0.00420758 12.5495 32.7496 -13.4156
312 0.377114 11.9476 12.3187 0.377114 11.9476 -14.592 -0.0211507 0.00548403 0.024148 -8.79205 -1.23836 17.612
313 -0.740465 -12.8601 13.3724 -0.740465 14.0506 -13.5383 -0.0254714 0.000173372 0.0063836 5.42648 -5.72942 -4.00818
314 -1.05406 13.0955 -12.0836 -1.05406 13.0955 -12.0836 -0.00826256 -0.00946467 -0.00761275 -0.607728 2.36889 19.9505
315 -3.36025 -13.3939 -12.2107 -3.36025 13.5168 -12.2107 -0.0144871 0.0128988 -0.0155587 -2.81017 -4.32753 -44.8595
316 -3.38013 -12.6126 13.0415 -3.38013 14.2981 -13.8692 0.00596892 -0.00456459 -0.00167068 3.78569 0.384017 -0.411536
317 -4.66662 12.4118 12.065 -4.66662 12.4118 -14.8458 -0.00687786 0.0324492 0.0200476 -3.08725 11.6928 -8.05105
318 -5.51375 12.9679 -13.391 -5.51375 12.9679 -13.391 -0.00895703 -0.0131331 0.00592477 -12.4127 3.22779 0.959066
319 -3.53936 10.6207 -13.4095 -3.53936 10.6207 -13.4095 -0.00176722 0.0225285 -0.0116342 9.70975 -7.87421 -2.19143
320 -5.15717 10.4131 12.9632 -5.15717 10.4131 -13.9475 -0.0329014 -0.0408738 0.0388744 -17.5378 -17.6724 -23.2149
321 -6.08364 11.0048 -11.7067 -6.08364 11.0048 -11.7067 0.020782 -0.0215939 -0.00654656 -47.1613 14.957 0.713014
322 -4.96414 9.72371 -11.5719 -4.96414 9.72371 -11.5719 0.0400789 -0.0170844 -0.0254457 2.14102 -10.5088 1.87221
323 -5.34689 11.0214 -9.29799 -5.34689 11.0214 -9.29799 0.0462669 -0.00622378 -0.0308789 -24.7368 -6.01861 4.68264
324 -3.76556 10.2311 -9.51024 -3.76556 10.2311 -9.51024 0.0146145 -3.37804e-05 -0.0163995 -10.1533 -1.68313 2.45753
325 -4.11755 13.1527 -8.96345 -4.11755 13.1527 -8.96345 0.000633831 0.0146042 -0.0268957 14.7287 -3.91069 10.933
326 -4.00572 12.0331 -7.55318 -4.00572 12.0331 -7.55318 0.00644907 0.00357635 -0.000319453 0.761568 -3.65537 -24.2787
327 -1.78859 12.4293 -9.66286 -1.78859 12.4293 -9.66286 -0.00850818 0.029359 -0.0241538 1.28467 11.5326 -21.7838
328 -1.83376 11.0421 -8.66184 -1.83376 11.0421 -8.66184 -0.00956141 -0.0157497 0.0152582 -2.83616 4.39399 1.37734
329 -1.94752 -13.1101 -7.44957 -1.94752 13.8007 -7.44957 -0.00346448 0.00255505 -0.00417583 -4.45151 -4.68322 3.17648
330 -1.45381 12.2785 -6.60222 -1.45381 12.2785 -6.60222 0.00623956 -0.0322172 0.0282578 5.30495 11.5907 -30.4734
331 0.461927 -12.0176 -6.98619 0.461927 14.8931 -6.98619 0.0013634 0.00459757 -0.00393152 -3.90218 -9.72895 -3.25686
332 1.20524 13.3343 -6.46527 1.20524 13.3343 -6.46527 -0.00313987 0.0149972 0.00607693 -18.6507 1.35381 -0.0235493
333 2.80468 -12.3297 -7.32146 2.80468 14.581 -7.32146 -0.0348598 -0.0311329 0.0183796 20.9689 15.6031 9.60633
334 1.96164 -11.9744 -8.87226 1.96164 14.9364 -8.87226 0.00848328 -0.00597706 -0.00287925 14.2674 -22.0395 15.639
335 2.18401 12.3605 -9.31925 2.18401 12.3605 -9.31925 0.00634604 0.00587124 -0.0253036 5.86091 1.45479 -14.1219
336 2.88207 12.2219 -7.72425 2.88207 12.2219 -7.72425 0.00134679 -0.0166065 0.021277 10.7719 -3.758 -11.3912
337 4.96282 13.4449 -8.29342 4.96282 13.4449 -8.29342 0.013621 0.0103585 0.0439482 -6.23548 9.5936 5.96316
338 4.7055 12.4149 -9.63317 4.7055 12.4149 -9.63317 0.0229006 -0.0267094 -0.00664308 -3.67658 -15.257 0.847899
339 5.90562 -13.2471 -11.0922 5.90562 13.6637 -11.0922 0.0277449 0.00928984 0.0178791 -1.62979 -3.27092 -5.79095
340 6.20748 -12.0971 -9.77005 6.20748 14.8137 -9.77005 -0.0136216 0.00469018 0.00502701 -5.7319 -3.47572 -3.68382
341 4.79956 -11.3646 -12.41 4.79956 15.5462 -12.41 0.0118097 0.00582242 -0.016133 -20.4596 -4.38879 -6.30299
342 4.94622 -10.2762 -11.0798 4.94622 16.6346 -11.0798 0.0116855 -0.0103263 0.0161593 -16.217 27.3143 18.9671
343 7.5357 -10.6043 -11.3882 7.5357 16.3064 -11.3882 0.0217455 -0.00172685 -0.00321107 -8.65095 5.87863 -18.1944
344 7.11004 -11.4659 -12.8637 7.11004 15.4448 -12.8637 -0.0111234 0.0280759 0.00438272 6.59772 -23.4224 -3.74776
345 6.06596 -9.7337 12.9665 6.06596 17.177 -13.9442 0.0260984 1.55692e-05 -0.0245138 -9.10786 10.127 -0.422027
346 7.72608 -9.40159 13.3355 7.72608 17.5092 -13.5752 0.00250922 -0.011725 -0.00963635 20.0807 -1.52615 -10.5592
347 7.13514 -6.42986 -13.3461 7.13514 20.4809 -13.3461 0.0324941 0.0159484 0.0263797 -6.22719 -4.53092 4.83312
348 5.97824 -7.33744 12.6037 5.97824 19.5733 -14.307 -0.0266233 0.0236056 -0.0130863 1.38085 -14.5696 -8.00735
349 5.26864 -6.1093 -11.7158 5.26864 20.8015 -11.7158 0.00401631 -0.0020935 -0.00299798 -3.84869 -5.955 25.2012
350 5.06171 -5.3214 -13.1015 5.06171 21.5894 -13.1015 0.00789504 -0.0158535 0.0333406 -10.074 22.6639 -25.1902
351 3.58945 -7.15517 12.8745 3.58945 19.7556 -14.0363 -0.0171107 -0.0158682 -0.0010253 -1.25144 -19.0285 16.3208
352 3.78223 -7.9807 -12.3409 3.78223 18.93 -12.3409 0.0127729 0.00432947 0.0270966 0.381133 -26.6128 -9.09595
353 2.49016 -6.51538 -11.2685 2.49016 20.3954 -11.2685 -0.0073186 0.0104392 0.00303067 -3.05802 9.00137 -16.871
354 2.65943 -5.25333 -12.5544 2.65943 21.6574 -12.5544 -0.0218889 -0.0196849 -0.0203545 -1.51443 10.1234 -1.5453
355 -0.209288 -6.39592 -11.5688 -0.209288 20.5148 -11.5688 -0.000637406 -0.0189658 -0.00755345 18.327 5.61764 -40.9954
356 0.391898 -4.87828 -12.304 0.391898 22.0325 -12.304 0.0223006 -0.00260608 -0.00991456 7.78528 -48.9397 -24.446
357 -0.7177 -5.54321 12.3172 -0.7177 21.3675 -14.5935 -0.000742123 -0.0185178 -0.00499837 13.3309 -1.69018 7.51422
358 -1.04421 -7.18026 12.8538 -1.04421 19.7305 -14.057 0.00779265 0.0174759 -0.00268545 4.37738 19.9046 11.5755
359 -2.82936 -5.42704 12.588 -2.82936 21.4837 -14.3228 -0.0130672 0.0174555 -0.00704716 -1.4887 1.76655 23.3737
360 -3.02105 -6.42211 -12.8861 -3.02105 20.4886 -12.8861 0.00209206 0.0256189 0.00145052 5.37048 5.93471 9.824
361 -1.65442 -3.54951 -13.0235 -1.65442 23.3612 -13.0235 -0.00838576 -0.00719526 0.0226346 -5.53352 -1.45151 -2.16034
362 -3.34431 -3.89175 -12.494 -3.34431 23.019 -12.494 0.0100961 0.00926627 0.0208771 8.79287 6.4987 10.4943
363 -0.432903 -5.26403 -9.31733 -0.432903 21.6467 -9.31733 0.029762 0.00450623 0.00594575 -50.0804 -6.22372 -14.4857
364 -2.82219 -6.80754 -8.34574 -2.82219 20.1032 -8.34574 0.00198878 -0.0229355 -0.0051299 2.01456 6.16425 5.62285
365 -1.4694 -6.33273 -7.26524 -1.4694 20.578 -7.26524 -0.0192229 -0.0110777 0.0102695 -0.166711 10.299 -18.4362
366 -1.15119 -8.48479 -6.53505 -1.15119 18.426 -6.53505 0.0170193 -0.00750237 -0.0020764 5.51243 -4.04867 5.16276
367 -0.93746 -9.83937 -7.62042 -0.93746 17.0714 -7.62042 0.0178215 0.0324753 -0.00427323 13.9364 -42.9725 3.00944
368 -2.48733 -9.04224 -7.45209 -2.48733 17.8685 -7.45209 0.016938 -0.0117354 0.0363199 -31.701 -17.0767 5.05229
369 0.7476 -7.44316 -7.85478 0.7476 19.4676 -7.85478 0.0116096 0.00887567 0.00379356 12.6748 4.6692 6.1672
370 0.652016 -7.09336 -9.57568 0.652016 19.8174 -9.57568 0.0149818 0.0123656 0.0128061 -4.36059 15.3603 -1.05368
371 1.08713 -9.87774 -8.49274 1.08713 17.033 -8.49274 -0.0114996 0.00278341 0.00955488 -8.82753 3.4461 -11.3945
372 3.13825 -8.64585 -10.1605 3.13825 18.2649 -10.1605 0.0243714 0.0184978 0.0119681 4.2636 0.445076 10.513
373 5.81125 -9.24623 -6.82006 5.81125 17.6645 -6.82006 0.000326475 0.00518739 0.00891673 -12.5764 17.9411 0.248767
374 5.46947 -7.394 -6.78696 5.46947 19.5167 -6.78696 -0.000293032 -0.00261727 0.00518593 -13.3254 -12.1176 -1.54987
375 7.7203 -7.85492 -7.56116 7.7203 19.0558 -7.56116 -0.00719544 -0.0105343 -0.0221166 19.2308 0.20643 18.1984
376 6.73172 -7.17144 -8.76892 6.73172 19.7393 -8.76892 -0.0277562 -0.0264986 -0.0162804 0.671419 12.377 -13.7093
377 6.52761 -9.23405 -9.76859 6.52761 17.6767 -9.76859 -0.0116264 -0.0198251 0.00170478 -2.88875 7.01987 5.62349
378 1.22796 -10.3712 -10.7766 1.22796 16.5396 -10.7766 -0.0134164 -0.020337 -0.0120283 6.67394 -17.8855 -28.4669
379 0.950285 -8.70261 -11.423 0.950285 18.2081 -11.423 0.0288755 0.0181184 0.0200049 -1.01476 -8.03696 0.986455
380 -2.25547 -11.2558 -9.84051 -2.25547 15.6549 -9.84051 -0.00727827 0.0250642 0.0133474 -3.68425 -14.4802 5.56798
381 -0.556951 -11.3242 -9.12675 -0.556951 15.5865 -9.12675 -0.00690027 0.0146236 0.024133 -16.5171 -3.05734 -8.66894
382 -0.832749 -11.9562 -10.7726 -0.832749 14.9546 -10.7726 -0.0204397 -0.0217075 -0.00309035 -8.42329 -7.17213 14.5076
383 -1.08931 -10.9488 -12.6493 -1.08931 15.962 -12.6493 0.00846741 -0.000503783 -0.0188889 12.3094 1.24812 2.79481
384 -2.57185 -10.2799 -11.9995 -2.57185 16.6308 -11.9995 -0.0276692 0.0125742 0.000306328 26.832 14.1961 -12.9811
385 -1.28308 -9.20406 -12.772 -1.28308 17.7067 -12.772 -0.03682 -0.0364051 -0.0296855 -4.77886 5.276 -5.0949
386 -1.72485 -7.82063 -10.7695 -1.72485 19.0901 -10.7695 -0.00281908 -0.0200376 0.00287288 -8.33032 -11.119 21.8618
387 -2.70637 -8.9568 -9.75699 -2.70637 17.954 -9.75699 -0.00678685 0.012843 0.00553376 -12.3629 2.90355 -5.96626
388 -5.14354 12.033 9.29112 -5.14354 12.033 -17.6196 0.0127029 -0.00115277 -0.00852501 -8.23169 7.70235 14.6652
389 -3.98124 10.8965 10.2267 -3.98124 10.8965 -16.684 0.00346311 -0.0208607 -0.00873554 -25.1709 18.6292 -21.2646
390 -6.09567 9.64475 6.54873 -6.09567 9.64475 -20.362 -0.00144594 0.0313661 0.013932 9.02725 26.4223 23.599
391 -6.85067 10.764 7.77885 -6.85067 10.764 -19.1319 0.0162995 0.00121922 -0.0230016 24.8669 -12.9939 -5.7195
392 -5.74755 11.4128 6.67955 -5.74755 11.4128 -20.2312 -0.0198724 0.0206675 -0.0182324 21.1032 4.06918 -3.85634
393 -4.61916 8.56376 9.90373 -4.61916 8.56376 -17.007 -0.0103142 0.0220638 0.00160037 1.38003 2.57646 -4.27192
394 -5.90035 8.35327 8.72053 -5.90035 8.35327 -18.1902 0.0161446 -0.0192738 -0.012641 1.20004 -14.2905 -9.30569
395 -3.53971 10.0373 6.53729 -3.53971 10.0373 -20.3735 -0.00772432 -0.0273285 -0.015055 9.69203 -7.13231 4.68811
396 -3.76021 8.42667 7.36689 -3.76021 8.42667 -19.5439 0.00624467 0.0204344 -0.00463495 -1.08203 30.7344 -5.76581
