ITEM: TIMESTEP
0
ITEM: NUMBER OF ATOMS
396
ITEM: BOX BOUNDS pp pp pp
-1.3455374323682250e+01 1.3455374323682250e+01
-1.3455374323682250e+01 1.3455374323682250e+01
-1.3455374323682250e+01 1.3455374323682250e+01
ITEM: ATOMS id type mol x y z ix iy iz vx vy vz
176 10 1 -4.8224 -7.20466 -6.13239 0 0 0 0.0212508 -0.00509522 0.00639039
177 10 1 -6.13401 -8.87342 -7.4566 0 0 0 0.0220473 0.0212273 -0.0112051
175 10 1 -4.51517 -8.86726 -5.55792 0 0 0 0.00866816 -0.0120054 -0.000688356
68 1 1 -6.47203 -8.58717 -6.45294 0 0 0 -0.00380334 -0.00407784 -0.000693703
323 10 2 -5.69189 -11.4892 -9.78777 0 1 0 -0.001197 0.0100709 -0.0214023
67 1 1 -5.27038 -8.07398 -5.63387 0 0 0 0.00151999 -0.00213437 0.00124945
178 10 1 -7.20237 -7.77528 -6.56064 0 0 0 -0.00274325 -0.00794864 0.020597
321 10 2 -6.39352 -11.6948 -12.2074 0 1 0 0.00315076 -0.00537943 -0.00169847
362 10 2 -5.94009 -5.44755 -11.0566 0 1 0 0.00500351 0.0070449 0.0137012
251 1 2 -4.89741 -5.32601 -11.3787 0 1 0 0.00173667 0.00229663 0.000107074
254 4 2 -5.07081 -7.41497 -9.50051 0 1 0 0.00146107 -0.00130428 0.00741813
359 9 2 -5.4234 -6.39078 -13.1864 0 1 0 0.0149351 -0.00258064 -0.00094426
69 6 1 -7.07391 -9.70485 -5.80159 0 0 0 0.00646477 0.00759739 -0.00505031
250 1 2 -4.57002 -6.35553 -12.4989 0 1 0 -0.00826741 0.00412019 -0.000462333
228 1 2 -5.46082 -12.5624 -9.79592 0 1 0 -0.00213649 0.00585541 -0.00576517
226 1 2 -6.20487 -12.7701 -12.0939 0 1 0 -0.00197195 -0.000347536 0.000449779
179 12 1 -7.14185 -9.46315 -4.85636 0 0 0 -0.00687667 0.0136009 0.0144244
324 10 2 -6.32921 -13.1107 -9.40837 0 1 0 0.0255516 0.00916291 -0.0349956
322 10 2 -7.13096 -13.2514 -11.7538 0 1 0 0.00773222 -0.000149066 -0.036701
227 5 2 -5.15922 -12.9968 -11.133 0 1 0 0.00248775 -0.00173512 -0.0024845
253 3 2 -4.14695 -6.61954 -9.46184 0 1 0 -0.00110293 0.00485551 -0.00227787
360 9 2 -4.48366 -7.36492 -12.0787 0 1 0 -0.00504491 0.00077424 -0.00947609
326 9 2 -4.48159 -12.5304 -7.86661 0 1 0 -0.005558 0.0173677 -0.0140651
246 1 2 0.373892 -5.61614 -12.7016 0 1 0 0.00603568 -0.000172356 -0.00211161
247 5 2 -0.876757 -5.95266 -13.328 0 1 0 0.00313718 0.000479345 -0.00157247
248 1 2 -2.02451 -5.82146 -12.4714 0 1 0 -0.00520824 -0.000973847 -0.000588641
252 5 2 -4.00994 -5.51946 -10.2543 0 1 0 0.00151516 -0.00536091 0.00226746
255 2 2 -3.00985 -6.76926 -8.70138 0 1 0 -0.00440988 -0.00279163 -0.00503674
256 1 2 -2.66273 -8.00963 -7.98313 0 1 0 0.00676177 -0.00292706 0.00159426
257 1 2 -1.63083 -8.91948 -8.73184 0 1 0 0.00290354 -0.00300373 0.00144839
259 1 2 -0.303776 -8.12984 -8.95785 0 1 0 0.00964527 0.00483729 0.00533554
260 1 2 0.708822 -8.86885 -9.86951 0 1 0 0.00110733 -0.0014016 -0.00698372
261 2 2 1.92263 -8.0609 -10.0437 0 1 0 7.22787e-05 -0.00170704 -0.000716388
268 1 2 0.0615677 -9.14477 -11.2473 0 1 0 -0.00392705 -0.00465072 -0.0046425
269 1 2 -1.24478 -9.98533 -11.1765 0 1 0 -0.00251411 0.0108923 -0.00847066
271 1 2 -1.95062 -9.90584 -12.5575 0 1 0 0.00340253 0.00453051 0.00414808
272 1 2 -2.23027 -9.38831 -10.1099 0 1 0 0.000153059 -0.00281746 -0.000541934
353 10 2 0.384538 -5.93852 -11.6519 0 1 0 -0.00995973 -0.0222789 -0.0257318
354 10 2 0.527386 -4.53002 -12.7348 0 1 0 0.00604616 0.00634177 -0.00839905
355 10 2 -1.97841 -6.57749 -11.6779 0 1 0 0.0324508 -0.0175563 0.0110018
356 10 2 -2.05136 -4.82713 -12.007 0 1 0 0.0163177 -0.0144875 -0.00038132
363 11 2 -2.30192 -6.05389 -8.80452 0 1 0 0.0159054 0.0224226 0.0231822
364 10 2 -3.57712 -8.58907 -7.806 0 1 0 0.0126141 0.000148595 -0.0236491
365 10 2 -2.25615 -7.73015 -7.00235 0 1 0 0.00322147 -0.000717706 -0.00598966
369 9 2 0.162146 -7.91061 -7.98842 0 1 0 -0.0155525 -0.0330006 -0.0111108
370 9 2 -0.52285 -7.15842 -9.4194 0 1 0 0.025944 -0.0261855 0.00282026
372 11 2 2.09267 -7.619 -10.9386 0 1 0 0.00200806 -0.00152964 -0.00590562
378 9 2 0.787783 -9.63885 -11.9051 0 1 0 0.00464683 -0.001602 -0.0118665
379 9 2 -0.168097 -8.18272 -11.7156 0 1 0 0.00430821 0.02264 -0.00786424
385 9 2 -2.11898 -8.86562 -12.8616 0 1 0 -0.0344032 0.0119464 -0.017578
386 9 2 -2.68057 -8.51173 -10.5855 0 1 0 0.0271066 -0.0191421 0.00422885
387 9 2 -3.06827 -10.075 -9.94308 0 1 0 -0.00308039 -0.0440212 0.00473223
352 9 2 1.37609 -7.42504 -13.3505 0 1 0 0.00164676 -0.0041368 -0.0267338
258 1 2 -1.37571 -10.1261 -7.77983 0 1 0 -0.00617997 -0.00666558 0.00238605
262 3 2 2.93181 -7.97907 -9.11383 0 1 0 0.00491412 0.0106784 0.00317838
366 9 2 -1.08406 -9.77784 -6.7807 0 1 0 0.0188995 0.00603383 -0.0282367
368 9 2 -2.27873 -10.7379 -7.66467 0 1 0 -0.00401375 -0.0134573 -0.0155202
349 9 2 2.93165 -5.92123 -11.8678 0 1 0 -0.0167504 0.00963251 0.00769859
263 4 2 2.92937 -8.52271 -8.02215 0 1 0 -7.1918e-05 -0.0016266 -0.00168665
371 10 2 0.996387 -9.82318 -9.411 0 1 0 -0.00758574 0.00112459 0.00784539
342 9 2 3.13181 -10.1169 -11.1606 0 1 0 0.0223565 0.0141352 -0.0276765
367 9 2 -0.570729 -10.7741 -8.12777 0 1 0 -0.000487235 -0.0113642 0.000950245
270 1 2 -0.905454 -11.4842 -10.9257 0 1 0 0.00262021 -0.00770734 0.00323491
384 9 2 -2.92801 -10.402 -12.5273 0 1 0 0.0144229 0.0187407 0.0344978
341 9 2 3.19381 -11.0737 -12.6358 0 1 0 -0.0106144 0.00588121 -0.0236741
382 9 2 -0.33944 -11.9009 -11.7688 0 1 0 0.00454228 -0.0177315 0.00202585
249 1 2 -3.29448 -6.03527 -13.3262 0 1 0 -0.00323863 0.000436532 0.00337496
264 5 2 3.94086 -7.22047 -9.61707 0 1 0 -0.000710192 0.000950417 -0.000174355
244 1 2 2.90309 -5.9206 -12.9649 0 1 0 -0.00122443 -0.00466598 -0.000477642
350 9 2 3.10142 -4.88984 -13.2847 0 1 0 0.0236884 0.0142587 -0.0100808
242 5 2 4.03052 -8.04584 -12.7143 0 1 0 0.000593264 -0.00137016 0.00396793
239 1 2 3.74737 -10.8228 -11.7256 0 1 0 0.00674449 -0.00566824 -0.00179468
380 9 2 -1.81329 -12.0867 -10.8135 0 1 0 0.00187978 -0.00440247 -0.00122952
381 9 2 -0.286789 -11.6295 -10.0396 0 1 0 0.00127889 -0.00125407 -0.0140801
238 1 2 3.96172 -12.1001 -10.8869 0 1 0 0.00512871 -0.00217049 0.00497833
237 5 2 2.67644 -12.6192 -10.4984 0 1 0 -0.00616428 0.00654479 -0.00327641
325 9 2 -3.40314 -12.1936 -9.21113 0 1 0 -0.00301801 -0.0285723 0.0123007
334 9 2 0.89726 -12.5254 -8.27462 0 1 0 -0.038029 -0.0206615 -0.00558052
315 10 2 -3.20893 -12.8103 -12.5216 0 1 0 0.0155959 0.0118322 -0.0400711
383 9 2 -1.34596 -10.3842 -13.3368 0 1 0 -0.00378632 -0.0116253 0.00153604
305 10 2 2.19374 -13.157 -12.9978 0 1 0 -0.0187534 0.0184532 -0.0235615
229 1 2 -4.2334 -12.8299 -8.89264 0 1 0 -0.00323643 -0.00871126 -0.000696444
374 10 2 4.9455 -6.55782 -7.90799 0 1 0 -0.0142396 0.0134655 0.00469603
340 10 2 4.55552 -11.8646 -9.99415 0 1 0 0.00089332 -0.005642 0.0106377
339 10 2 4.50658 -12.8394 -11.4884 0 1 0 -0.00181923 0.00429073 0.00794814
265 1 2 5.1526 -7.06828 -8.85731 0 1 0 -0.00833542 0.00715608 -0.00492018
373 10 2 5.5936 -8.05037 -8.64162 0 1 0 0.00493637 0.00315407 0.0130128
266 1 2 6.13768 -6.23291 -9.7001 0 1 0 0.00304615 -0.00439417 0.00422341
267 6 2 6.41723 -6.89139 -10.934 0 1 0 0.00139008 -0.00108952 0.00337039
347 10 2 4.98442 -6.33429 -13.4193 0 1 0 -0.0118309 -0.022372 0.000880323
376 10 2 5.69434 -5.24759 -9.89228 0 1 0 0.0129083 -0.0364862 0.00969357
377 12 2 5.55835 -7.21656 -11.2712 0 1 0 0.00568986 0.00579821 -0.0292396
375 10 2 7.06561 -6.08244 -9.13441 0 1 0 -0.00515525 -0.0072607 0.00525464
241 1 2 4.94478 -9.05065 -13.1837 0 1 0 -0.0009123 0.00642761 -0.000559552
240 1 2 5.08858 -10.1522 -12.1072 0 1 0 0.0011159 -0.00499855 0.00254616
343 9 2 5.5511 -9.72581 -11.2077 0 1 0 -0.00866823 0.00983869 -0.0141091
344 9 2 5.78066 -10.9144 -12.4869 0 1 0 0.0281869 -0.0375453 0.0160827
346 10 2 5.9314 -8.60779 -13.3734 0 1 0 -0.00659327 -0.0143823 -0.0197366
361 10 2 -4.78412 -4.30887 -11.7751 0 1 0 -0.0204696 0.026205 -0.00599646
328 9 2 -4.62932 11.9591 -8.65953 0 0 0 0.00836307 0.0124251 0.0140159
319 9 2 -5.54545 12.4673 -13.3312 0 0 0 -0.00299169 -0.0152027 -0.0297645
230 1 2 -3.7736 12.6017 -8.90181 0 0 0 0.00493965 0.0010661 -0.00384093
231 1 2 -2.64125 12.3254 -7.88573 0 0 0 0.000188577 0.000461257 -0.00553348
232 5 2 -1.42713 12.9576 -8.33663 0 0 0 -0.000425945 0.0047669 0.000851338
233 1 2 -0.316044 12.7753 -7.43851 0 0 0 -0.00329839 0.00314026 -0.00416499
234 1 2 0.980174 13.3081 -8.09486 0 0 0 0.000845879 0.00604908 0.00621844
235 1 2 1.33094 12.5763 -9.41451 0 0 0 0.000419368 0.00108103 -0.00085458
236 1 2 2.72873 12.9618 -9.95116 0 0 0 0.00130261 0.0024324 -0.00126413
327 9 2 -3.43689 12.3167 -9.90725 0 0 0 -0.0325557 -0.00484357 0.0268155
329 10 2 -2.92869 12.7054 -6.89672 0 0 0 -0.0154462 0.0127209 0.000231473
330 10 2 -2.48753 11.2412 -7.80959 0 0 0 0.00554331 0.0138613 0.030832
331 10 2 -0.499955 13.3152 -6.50067 0 0 0 0.0233602 0.0287857 -0.0207442
332 10 2 -0.188652 11.71 -7.2058 0 0 0 -0.00508663 0.00213022 -0.0186096
333 9 2 1.80411 13.1777 -7.38203 0 0 0 -0.0112129 0.00701318 -0.0104457
335 9 2 0.569114 12.789 -10.1752 0 0 0 -0.0197867 0.0142612 0.00501436
336 9 2 1.3108 11.4933 -9.23958 0 0 0 -0.000754288 0.0247833 -0.00123661
337 10 2 3.46625 12.906 -9.1398 0 0 0 0.00555001 -0.00612049 -0.0234458
338 10 2 3.02308 12.253 -10.7358 0 0 0 0.0122048 0.00280949 0.0139387
308 10 2 0.939305 11.8963 -12.2845 0 0 0 0.0318672 0.0201951 -0.0120463
314 10 2 -1.87621 11.84 -12.2683 0 0 0 -0.00273761 0.0134375 -0.00228714
307 10 2 2.18508 10.837 -12.9851 0 0 0 0.0205507 0.00775979 0.00402733
218 1 2 1.24274 11.3602 -13.1922 0 0 0 0.00499271 0.00355355 -0.00356122
310 9 2 -0.100385 9.74682 -12.6711 0 0 0 -0.0138426 0.0151716 0.0128134
221 1 2 -1.69028 12.1437 -13.3066 0 0 0 -0.00716745 -0.000525102 -0.00028011
313 10 2 -0.953548 12.9581 -13.3099 0 0 0 -0.0184375 -0.0140977 0.0144278
41 1 1 -5.67999 -10.7033 -1.34412 0 0 0 -0.00315089 -0.000998808 -0.000416738
42 1 1 -6.48091 -11.3288 -2.51253 0 0 0 0.00543752 3.04007e-05 0.00274508
43 1 1 -7.93691 -10.817 -2.62074 0 0 0 0.000272945 0.00662244 -0.00467681
44 5 1 -7.93906 -9.38215 -2.70373 0 0 0 -0.00618188 0.00136931 -0.00781889
62 1 1 -4.84668 -6.76669 -0.926793 0 0 0 -0.000737479 0.00273944 0.00160815
63 2 1 -5.51104 -7.09594 -2.19557 0 0 0 0.000257951 0.00448404 -0.00390341
64 3 1 -4.84655 -7.33155 -3.3766 0 0 0 0.00112564 0.010269 -0.00134938
66 5 1 -5.74373 -7.70863 -4.32559 0 0 0 0.00342194 -0.000698948 0.0015927
70 1 1 -5.81545 -7.02021 0.25141 0 0 0 -0.00113181 -0.000754175 0.00225052
104 9 1 -7.28861 -9.58326 1.51008 0 0 0 0.00366923 0.0178061 -0.0135432
107 10 1 -5.63984 -11.4229 1.73535 0 0 0 0.0160757 0.00178379 -0.019052
141 10 1 -4.74322 -12.5457 -0.696514 0 0 0 -0.0107115 0.0146972 0.00536277
143 9 1 -6.3179 -10.625 -0.4578 0 0 0 0.00789505 0.0231441 -0.0281847
144 9 1 -5.37608 -9.68645 -1.61176 0 0 0 0.0179946 0.00571635 -0.0190637
145 9 1 -5.95386 -11.1378 -3.45618 0 0 0 0.00570229 -0.0090475 -0.0166737
146 9 1 -6.51536 -12.4186 -2.3884 0 0 0 0.0127768 0.0139853 0.0194688
147 10 1 -8.51011 -11.1397 -1.74197 0 0 0 -0.0114761 0.00476868 -0.00164955
148 10 1 -8.40004 -11.2512 -3.51666 0 0 0 -0.00538898 -0.00464526 -0.00364212
154 9 1 -8.62161 -7.42716 -0.84181 0 0 0 0.0229297 -0.00858802 -0.0101457
174 11 1 -6.50628 -7.28237 -2.19172 0 0 0 0.0130345 -0.00938206 -0.00150519
180 9 1 -6.15712 -8.06155 0.223861 0 0 0 0.014953 0.0291818 0.0174554
181 9 1 -6.70678 -6.40401 0.0970078 0 0 0 -0.0101555 -0.00402036 0.0162501
184 9 1 -4.80736 -8.78218 2.19713 0 0 0 -0.000784197 -0.00187757 -0.0156724
47 1 1 -9.26735 -6.81923 -1.48802 0 0 0 -0.00620067 -0.00643971 -0.00303942
71 1 1 -5.22062 -6.69227 1.65279 0 0 0 -0.00479318 0.00227359 -0.000961396
185 9 1 -6.83143 -7.62551 2.83842 0 0 0 0.00985161 -0.00365626 -0.00476598
18 1 1 -6.36372 -12.1214 2.17362 0 0 0 0.00409978 -0.00061928 0.000547612
105 9 1 -7.99736 -11.866 0.771703 0 0 0 0.00171634 0.016183 0.0145218
108 10 1 -6.18105 -13.1237 1.76626 0 0 0 0.00213128 -0.0103492 -0.010105
153 9 1 -10.2989 -6.98505 -1.15217 0 0 0 -0.0117439 -0.00633623 -0.0139596
73 1 1 -6.38658 -6.63692 2.67913 0 0 0 0.00177138 -0.00112525 -0.00060468
101 10 1 -9.70394 -9.96738 0.780695 0 0 0 -0.0211759 0.0231749 0.00121234
16 1 1 -7.99754 -10.1583 2.11555 0 0 0 -0.000557471 -0.00371553 -0.00383468
17 1 1 -7.79808 -11.6656 1.83176 0 0 0 -0.000506995 -0.00207578 -0.00170515
20 1 1 -4.90363 -12.3442 4.09051 0 0 0 0.000721278 0.00454784 -0.00248999
151 9 1 -8.17555 -6.93287 -3.37782 0 0 0 -0.00406523 0.000124628 0.00661731
46 1 1 -9.12513 -7.28512 -2.95618 0 0 0 0.000812255 -0.000564342 -0.00435119
186 9 1 -6.04001 -6.26088 3.64833 0 0 0 0.011653 -0.0122756 -0.00551541
45 1 1 -9.20755 -8.82054 -3.08989 0 0 0 0.00482626 -0.00303369 0.00696197
150 10 1 -10.0162 -9.20805 -2.4563 0 0 0 -0.000201431 -0.0244984 0.0226114
149 10 1 -9.42372 -9.08376 -4.13353 0 0 0 -0.00127564 -0.0162195 -0.00416261
187 9 1 -7.1822 -5.96456 2.33649 0 0 0 0.00125521 -0.0283681 0.0168538
14 5 1 -9.46007 -8.25114 1.94146 0 0 0 -0.00679554 0.00291437 0.0038159
15 1 1 -9.42945 -9.68541 1.80529 0 0 0 0.00366971 -0.00116323 -0.00621522
100 10 1 -11.3988 -8.12762 1.18151 0 0 0 0.0174728 -0.00737832 -0.00524666
99 10 1 -10.6814 -6.58231 1.67064 0 0 0 -0.0121086 -0.0137349 -0.00379428
152 9 1 -9.92324 -6.82739 -3.55404 0 0 0 0.0194092 0.00167098 -0.000627268
13 1 1 -10.7663 -7.64381 1.93687 0 0 0 -0.00293958 -0.00887271 0.00432758
19 5 1 -6.239 -12.1411 3.60257 0 0 0 0.00171516 -0.00148537 -0.00377058
106 9 1 -8.51981 -12.2568 2.41018 0 0 0 -0.00265716 0.00579495 0.0219767
102 10 1 -10.1252 -10.1663 2.50348 0 0 0 -0.0103849 0.00956389 0.0173748
103 9 1 -7.77058 -9.94395 3.16824 0 0 0 -0.0187096 -0.00375013 0.00259723
97 9 1 -11.2758 -8.78315 3.749 0 0 0 -0.000829398 -0.0188736 0.00788108
12 1 1 -11.4226 -7.77612 3.34107 0 0 0 0.000608382 -0.00102788 -0.000273196
98 9 1 -12.5064 -7.65495 3.22199 0 0 0 -0.00397709 0.00121133 -0.0189172
155 10 1 -7.82862 -5.19876 -1.52936 0 0 0 -0.000468789 -0.00095267 0.0117626
48 1 1 -8.89771 -5.33103 -1.31659 0 0 0 -0.00255985 -0.00217525 -0.00247421
74 1 1 -4.53488 -5.2797 1.65576 0 0 0 -0.000261494 -0.00211623 -8.61293e-05
49 5 1 -9.20273 -4.95056 0.0368702 0 0 0 -0.00724411 -0.00150619 -0.00258988
94 10 1 -8.86212 -6.59019 3.75703 0 0 0 0.0188796 0.00386327 0.00929454
95 9 1 -11.1778 -5.71938 3.98997 0 0 0 -0.0248705 -0.00542503 -0.00780203
109 10 1 -4.52436 -13.3196 3.76034 0 0 0 -0.00275464 -0.022791 0.0401028
156 10 1 -9.47207 -4.7114 -2.01692 0 0 0 0.00167549 0.0165759 -0.0169097
172 9 1 -5.29556 -4.66147 -1.062 0 0 0 -0.000443354 -0.00553199 -0.00748601
188 9 1 -5.35501 -4.56109 1.74124 0 0 0 -0.00533135 0.00398387 0.0403528
11 1 1 -10.9354 -6.71964 4.37042 0 0 0 0.00512044 0.000585697 0.00815132
39 5 1 -3.72204 -10.8932 0.0743555 0 0 0 -0.00236556 -0.000922504 0.000300824
40 1 1 -4.42918 -11.5384 -0.999983 0 0 0 0.00913628 0.00625425 -0.0055079
65 4 1 -3.64088 -7.24065 -3.53689 0 0 0 0.00372134 0.00223019 0.000619442
142 10 1 -3.77991 -11.6222 -1.88119 0 0 0 -0.00641016 0.0195414 0.0114373
173 10 1 -3.97247 -7.42074 -0.8192 0 0 0 -0.000963707 -0.00519961 0.0296382
72 1 1 -4.26514 -7.83135 2.11276 0 0 0 -0.00653674 -0.000827677 0.000515892
183 9 1 -3.44859 -8.00011 1.40913 0 0 0 -0.0273069 0.0234489 -0.0283828
182 9 1 -3.83406 -7.61632 3.09715 0 0 0 -0.0140841 -0.00700172 0.00250754
110 10 1 -4.23462 -11.5592 3.71627 0 0 0 0.00560258 0.000235012 0.00015445
38 1 1 -2.72272 -11.7265 0.688098 0 0 0 -0.00335415 0.0121203 0.00138992
139 10 1 -2.02971 -12.119 -0.0675226 0 0 0 0.00297331 -0.0179393 -0.0232628
140 10 1 -3.2077 -12.5749 1.18794 0 0 0 0.0181766 0.0313616 0.00953213
169 9 1 -2.27351 -6.59265 0.350274 0 0 0 -0.0154019 -0.00781376 0.0104735
37 1 1 -1.94213 -10.9019 1.73579 0 0 0 -0.00205526 -0.00461187 -0.00139625
136 9 1 -1.56332 -9.08433 0.582516 0 0 0 0.00386947 0.0107198 -0.00880862
137 9 1 -2.64506 -10.3958 2.40944 0 0 0 0.0159037 -0.0186728 -0.0356665
36 1 1 -0.986316 -9.86672 1.09035 0 0 0 -0.00203488 -0.00117235 -0.00050512
135 9 1 -0.385165 -10.3626 0.317885 0 0 0 0.00140146 -0.000786227 0.00875454
34 5 1 -0.791257 -8.50693 3.09863 0 0 0 0.00598982 -0.0044632 -0.00072442
35 1 1 -0.024603 -9.22791 2.11857 0 0 0 0.00218946 -0.00890163 0.0023162
133 10 1 0.660775 -8.54385 1.60173 0 0 0 -0.0202414 0.0174782 -0.000564462
134 10 1 0.568089 -10.0151 2.60266 0 0 0 0.00570265 0.0147655 0.010715
138 9 1 -1.35572 -11.5938 2.3533 0 0 0 -0.0120728 0.00894924 -0.0267309
33 1 1 -0.00576988 -7.97595 4.18272 0 0 0 -0.00422048 -0.00292074 0.000538941
131 10 1 0.813707 -7.35714 3.79455 0 0 0 -0.0205952 -0.0226778 0.0266349
127 9 1 -2.11051 -6.2078 3.52244 0 0 0 -0.0265093 0.0179529 0.00422641
128 9 1 -0.646108 -5.31524 3.89884 0 0 0 -0.00655835 0.0244162 0.0265436
61 1 1 -4.40262 -5.28244 -0.914732 0 0 0 -0.00123875 0.00340095 0.00363605
60 1 1 -2.256 -5.50472 0.446358 0 0 0 0.0092905 0.00264284 2.94224e-05
189 9 1 -3.94989 -5.14619 2.5736 0 0 0 -0.00478442 0.0373843 0.0408219
170 9 1 -1.74116 -5.2553 1.38181 0 0 0 0.00821494 0.0365861 -0.00586312
171 9 1 -3.74673 -5.08439 -1.77223 0 0 0 -0.00183786 -0.005815 0.00402616
59 1 1 -3.67733 -4.86511 0.402121 0 0 0 -0.00521057 0.00023431 0.00431422
168 9 1 -1.63713 -5.12826 -0.378228 0 0 0 0.00955456 0.00116054 0.00435646
31 1 1 -1.47467 -5.87637 4.34862 0 0 0 0.000605528 -0.0142554 -0.0036407
50 1 1 -8.43395 -3.84089 0.530993 0 0 0 -0.00336359 -0.00555076 -0.0044021
53 1 1 -7.54729 -1.27761 2.08464 0 0 0 -0.00408731 0.00292468 -0.00517826
54 5 1 -6.56901 -1.57224 1.06256 0 0 0 -0.00144336 -0.0069847 -0.00158854
55 3 1 -5.31269 -1.96441 1.41892 0 0 0 -0.0102164 -0.0034948 -0.00326087
56 4 1 -4.85874 -1.95166 2.55117 0 0 0 0.00123101 -0.00152042 0.00114585
57 2 1 -4.68591 -2.5161 0.323961 0 0 0 -0.00326094 0.00788259 0.0012439
157 10 1 -7.37859 -4.13052 0.610073 0 0 0 0.0385469 0.00131864 0.0191515
165 11 1 -5.20065 -2.50171 -0.546696 0 0 0 0.0064026 -0.0167881 -0.0163129
51 1 1 -8.97972 -3.46236 1.92643 0 0 0 -0.00929671 -0.00376138 0.00107635
158 10 1 -8.51204 -2.98133 -0.147435 0 0 0 -0.0148575 -0.00402894 0.00321805
159 9 1 -9.93286 -2.93251 1.80423 0 0 0 0.0236213 0.0245536 -0.00582557
163 10 1 -8.4156 -0.77639 1.63809 0 0 0 -0.00277216 -0.021902 0.00901096
160 9 1 -9.20093 -4.37988 2.48669 0 0 0 0.00530827 0.00983601 -0.0245483
52 1 1 -8.00913 -2.59506 2.77344 0 0 0 -0.000779669 -0.00493499 0.000816251
162 9 1 -7.14065 -3.20033 3.06102 0 0 0 -0.0187286 0.00994135 0.0364108
164 10 1 -7.11428 -0.599217 2.83173 0 0 0 -0.0116809 -0.0113462 -0.00356106
161 9 1 -8.5157 -2.33461 3.71115 0 0 0 0.00841538 -0.0121396 -2.07022e-05
58 1 1 -3.44558 -3.31291 0.402766 0 0 0 -0.00215336 0.00654588 -0.00262452
166 10 1 -2.89484 -3.02998 1.30949 0 0 0 -0.0149356 -0.00144131 -0.0141682
167 10 1 -2.81657 -3.04297 -0.455238 0 0 0 -0.00569266 0.0127006 0.00834419
117 10 1 -4.95482 -7.36294 5.21416 0 0 0 0.0116537 0.00895615 -0.00619377
1 1 1 -6.84504 -12.8782 9.34121 0 0 0 -0.00390586 -0.0035515 -0.00306741
2 1 1 -8.36788 -12.5607 9.29989 0 0 0 0.0030242 -0.00513042 0.00312903
4 1 1 -8.73685 -11.8207 7.96215 0 0 0 0.00262566 0.00194942 0.00413611
5 1 1 -8.98441 -10.2911 8.10141 0 0 0 -0.00654793 -0.00309093 -0.00333955
6 2 1 -8.85429 -9.62964 6.79492 0 0 0 0.00686562 0.000647888 0.00832653
75 1 1 -8.0172 -9.67863 9.14316 0 0 0 0.000343989 0.00098777 0.00158319
76 1 1 -8.27842 -10.2258 10.588 0 0 0 0.00426276 0.000592406 -0.0011512
82 1 1 -8.7972 -11.7138 10.5446 0 0 0 0.00727032 0.00624839 0.00108354
89 9 1 -7.95011 -12.0008 7.21855 0 0 0 0.00998806 0.00845001 0.00648322
90 9 1 -9.64594 -12.2565 7.5277 0 0 0 0.0249497 -0.0230837 0.02851
91 10 1 -10.0118 -10.1395 8.45723 0 0 0 -7.35072e-05 -0.0208224 -0.00749995
92 11 1 -8.34615 -10.0959 6.0542 0 0 0 0.0153442 0.0244781 0.00809517
197 9 1 -9.89546 -11.7002 10.551 0 0 0 -0.0355812 -0.00249493 -0.0251703
198 9 1 -8.51616 -12.2364 11.4683 0 0 0 -0.00239261 0.00993086 -0.00344515
77 1 1 -9.38431 -9.36066 11.2738 0 0 0 0.00453835 0.00303279 0.000361779
114 9 1 -6.294 -10.5781 5.66899 0 0 0 0.0169763 0.00437107 0.0151108
190 9 1 -8.11229 -8.58548 9.14104 0 0 0 -0.00966383 0.00171691 -0.00240972
194 9 1 -10.3292 -9.41074 10.7178 0 0 0 -0.00257517 0.0395413 0.0145128
7 3 1 -9.36723 -8.385 6.50834 0 0 0 -0.00222445 0.00253166 -0.00107387
8 4 1 -9.97225 -7.67852 7.29725 0 0 0 -0.00280984 -0.00740683 -0.00516757
9 5 1 -9.04555 -8.05381 5.22828 0 0 0 0.000654333 -0.00536542 0.00112424
192 9 1 -9.57723 -9.71084 12.2959 0 0 0 -0.00556447 -0.011544 -0.00164853
193 9 1 -9.0997 -8.30236 11.3294 0 0 0 0.00414561 0.0255628 0.00140537
25 1 1 -5.54425 -7.79341 6.031 0 0 0 0.00227485 -0.00129505 -0.00133433
118 10 1 -6.39441 -8.33055 5.59295 0 0 0 -0.0437189 -0.00145016 0.0186825
10 1 1 -9.41689 -6.76873 4.68343 0 0 0 0.00299194 0.00962845 0.000190705
96 9 1 -11.5067 -6.83631 5.2993 0 0 0 0.0145092 0.0215847 0.0228089
85 9 1 -6.23316 -11.9776 9.25269 0 0 0 0.01223 0.0144444 0.00666759
191 9 1 -6.98537 -9.8829 8.83271 0 0 0 0.024341 0.0374251 0.00715047
26 1 1 -6.07702 -6.67376 6.95391 0 0 0 0.00172284 0.00197933 -0.00423522
120 9 1 -6.70902 -5.99564 6.36724 0 0 0 -0.0274832 -0.0087193 0.00891484
119 9 1 -6.73215 -7.13189 7.70478 0 0 0 -0.0103117 0.00163261 0.00567234
93 10 1 -9.15208 -5.96867 5.38661 0 0 0 0.0340263 -0.0242589 -0.000303241
78 1 1 -6.97072 -10.1466 11.449 0 0 0 -0.00649656 0.000956507 0.000842525
195 10 1 -6.18499 -10.7646 11.0031 0 0 0 0.0321766 -0.0246545 0.00967723
196 10 1 -7.17076 -10.5446 12.4518 0 0 0 -0.0405885 0.00413003 -0.00488148
22 1 1 -5.39151 -10.9247 6.18646 0 0 0 -0.007646 0.00259179 0.00811351
79 7 1 -6.48113 -8.76236 11.5701 0 0 0 -0.00117319 -4.01917e-05 0.0016505
111 9 1 -5.66722 -13.064 5.97952 0 0 0 0.0136435 -0.0110397 -0.0347196
21 1 1 -4.95799 -12.3023 5.63178 0 0 0 0.00140593 -0.00349938 -0.000512937
113 9 1 -5.66418 -11.0457 7.2391 0 0 0 0.0094583 0.0269723 0.0233921
80 8 1 -5.88957 -7.80692 11.1577 0 0 0 0.00267203 -0.00857153 0.0110514
81 4 1 -5.33663 -6.80931 10.8924 0 0 0 -0.000137283 0.00136157 0.000690137
24 5 1 -4.72008 -8.68478 6.80351 0 0 0 0.000886286 0.00313434 -0.00133358
27 1 1 -4.98067 -5.85385 7.68798 0 0 0 0.000535087 0.00337209 0.00222227
122 9 1 -5.47286 -5.24405 8.45571 0 0 0 0.00918092 0.00279609 0.00199421
318 9 2 -4.79289 -11.5558 12.8093 0 1 -1 -0.0118212 -0.0170256 0.0332186
224 1 2 -4.63156 -12.6383 12.742 0 1 -1 0.000929113 -0.00710729 -0.00279934
317 9 2 -4.64004 -12.8892 11.6741 0 1 -1 0.00277174 -0.00244604 0.0133289
83 9 1 -6.57256 -13.3821 10.2761 0 0 0 -0.00110292 -0.00868583 0.0445075
320 9 2 -6.67193 -13.3516 12.7949 0 1 -1 -0.0119896 0.000905747 0.0130402
225 1 2 -5.79483 -13.3821 13.4525 0 1 -1 0.00470932 0.00187705 -0.004558
245 1 2 1.50139 -6.34105 13.4447 0 1 -1 0.00021095 0.00683019 -0.00107264
243 1 2 4.01586 -6.84374 13.4051 0 1 -1 0.00176633 -0.00781834 0.00441614
132 10 1 0.424407 -8.79693 4.7708 0 0 0 -0.00468492 0.0125242 -0.00592068
357 9 2 -3.46905 -5.13866 12.9765 0 1 -1 -0.0188313 -0.0137338 0.0468085
32 1 1 -0.916328 -7.11823 5.08955 0 0 0 0.00676267 -0.0053593 -0.00447202
115 10 1 -4.03752 -9.62245 5.05504 0 0 0 0.0063785 -0.0272827 0.0299018
129 9 1 -1.74188 -7.7389 5.46242 0 0 0 -0.0106844 -0.00362278 0.00452169
351 9 2 1.41907 -6.12403 12.3721 0 1 -1 0.013693 -0.0186162 -0.00152922
302 9 2 1.13161 -11.1262 13.1204 0 1 -1 -0.0358615 -0.0150977 0.010679
116 10 1 -3.3691 -10.2469 6.58018 0 0 0 -0.00468006 0.00175695 0.0153886
112 9 1 -3.97759 -12.5733 6.04343 0 0 0 0.0229214 0.00270547 -0.0010639
23 1 1 -4.27633 -9.85923 6.10047 0 0 0 0.00156477 -0.00793193 0.00397466
358 9 2 -3.12173 -6.86026 12.8811 0 1 -1 -0.0340931 -0.00584 0.0313432
208 1 2 -2.86032 -9.86935 10.7652 0 1 -1 0.00215794 -0.00159316 0.00242573
209 1 2 -2.48607 -8.86368 9.64731 0 1 -1 -0.00164087 0.00865513 0.0059523
210 1 2 -0.964672 -8.68683 9.39451 0 1 -1 0.00388699 0.00408043 0.0017927
211 1 2 -0.143384 -8.26948 10.6498 0 1 -1 0.00173865 -0.00508518 0.00345493
212 5 2 0.0717459 -9.39909 11.5228 0 1 -1 -0.00270725 0.00181097 0.00478298
213 1 2 1.06138 -10.3571 11.0972 0 1 -1 0.000365296 0.00690451 -0.00271584
291 10 2 -3.94809 -10.0007 10.8016 0 1 -1 -0.0135869 -0.00741235 0.0178837
292 10 2 -2.54236 -9.45286 11.7271 0 1 -1 0.0139901 0.00495135 0.0155236
293 9 2 -2.91509 -7.88735 9.90336 0 1 -1 -0.0132126 0.010065 -0.0125468
294 9 2 -2.96616 -9.16841 8.71172 0 1 -1 0.0142904 -0.00663891 0.00598064
295 9 2 -0.559114 -9.6 8.94491 0 1 -1 -0.0243584 0.0232586 0.00539318
296 9 2 -0.842972 -7.90552 8.63363 0 1 -1 0.0346308 -0.0211057 0.00663892
297 10 2 -0.685054 -7.483 11.1915 0 1 -1 0.0148007 -0.00666833 -0.000286144
300 10 2 0.831964 -10.7494 10.0996 0 1 -1 0.0200053 -0.0164961 -0.0250053
207 5 2 -2.21007 -11.1409 10.5548 0 1 -1 0.000964064 0.000454159 0.00668454
205 3 2 -2.62573 -11.9885 9.57868 0 1 -1 -0.00121419 -0.00548491 -0.000696179
206 4 2 -3.5644 -11.8036 8.82515 0 1 -1 0.000900049 0.00157425 -0.003055
204 2 2 -1.84623 -13.1209 9.60529 0 1 -1 -0.00377552 -0.00564669 0.00484104
214 1 2 1.07221 -11.5281 12.102 0 1 -1 -0.00911289 -0.00172205 -0.00733832
301 9 2 0.128062 -12.0837 12.0305 0 1 -1 0.0201735 0.00347561 0.00588813
121 9 1 -4.29996 -6.52599 8.22531 0 0 0 0.0149122 -0.0103505 -0.019931
316 10 2 -2.49492 -12.3061 12.8454 0 1 -1 -0.0043924 -0.0184156 -0.000827108
290 11 2 -1.1319 -13.1644 10.321 0 1 -1 -0.00558097 0.0179904 -0.0196642
298 10 2 0.823095 -7.85353 10.3382 0 1 -1 0.00961805 -0.00124468 0.00658537
215 1 2 2.26636 -12.4829 11.8499 0 1 -1 0.00247392 0.000628505 -0.00218693
303 9 2 3.19544 -11.8989 11.859 0 1 -1 -0.00187978 0.0145424 -0.0081269
299 10 2 2.0493 -9.87991 11.0714 0 1 -1 0.00290108 -0.0304694 0.0151864
348 10 2 3.8334 -7.07366 12.347 0 1 -1 0.0344853 -0.0381273 0.0199186
28 1 1 -4.1618 -4.90309 6.7816 0 0 0 -0.00494982 0.00014843 -0.000513861
130 9 1 -0.342234 -6.79162 5.96576 0 0 0 0.0058464 0.018298 0.0162876
30 1 1 -2.28197 -4.92207 5.25761 0 0 0 0.0116856 0.00438961 0.00710167
29 5 1 -3.28501 -5.68074 5.95109 0 0 0 -0.00399349 0.00133045 -0.00264672
304 9 2 2.18504 -12.9351 10.8529 0 1 -1 -0.0144376 0.0013115 -0.0013117
223 1 2 -3.23569 -12.9707 13.3061 0 1 -1 5.1131e-05 -0.00273415 0.0044884
345 10 2 4.57291 -9.48849 12.7916 0 1 -1 -0.0246497 -0.00694986 0.0263971
123 10 1 -4.83346 -4.29221 6.16492 0 0 0 0.0198646 0.0184637 0.0127189
124 10 1 -3.57089 -4.2345 7.42088 0 0 0 0.0103257 0.0100714 0.00261309
125 10 1 -2.74913 -4.14004 4.64474 0 0 0 0.00527726 -0.00381516 -0.00654405
126 10 1 -1.60717 -4.44587 5.98048 0 0 0 0.0335685 0.00421836 0.00643548
3 1 1 -9.1145 12.9858 9.34877 0 -1 0 -0.00544969 -0.00239701 -0.000725089
84 9 1 -6.56343 13.3724 8.51301 0 -1 0 0.00164931 0.0285531 -0.00751664
87 9 1 -10.2026 13.1273 9.32065 0 -1 0 -0.022956 0.00592939 0.00588354
86 9 1 -8.83578 12.3529 8.49615 0 -1 0 0.0314134 0.0272563 0.0234653
88 9 1 -8.87307 12.437 10.2682 0 -1 0 -0.0275134 0.00900502 0.000564437
279 4 2 -6.79913 10.8757 11.4783 0 0 -1 -0.00777461 -0.0017454 7.45562e-06
278 8 2 -6.11014 10.3971 10.6607 0 0 -1 0.00239168 -0.00189133 -0.000854152
391 9 2 -5.53963 11.5188 7.62687 0 0 -1 0.00383765 0.0185148 -0.0147358
277 7 2 -5.53449 9.89458 9.73861 0 0 -1 0.0041976 0.00744405 -0.00174114
390 9 2 -4.89401 10.3264 6.48892 0 0 -1 -0.0125616 -0.00393518 -0.0121466
275 1 2 -4.61613 11.1297 7.18345 0 0 -1 -0.00411432 0.00883083 0.00204717
394 10 2 -4.56908 8.63353 8.35532 0 0 -1 0.000362081 0.0318561 -0.00859815
289 10 2 -2.30885 12.9861 7.73135 0 0 -1 0.00606083 0.00685409 -0.0109085
392 9 2 -4.16816 11.9391 6.59522 0 0 -1 0.0015129 -0.0259211 0.00403714
388 9 2 -4.12494 12.4162 9.40845 0 0 -1 -0.00693655 -0.000980753 0.00698694
216 1 2 2.37571 13.3212 12.9212 0 0 -1 0.00411798 0.00832037 -0.00310352
203 1 2 -2.06374 12.6242 8.73846 0 0 -1 0.00299629 0.00437625 0.00728648
217 5 2 1.41199 12.2943 12.637 0 0 -1 -0.00251548 -0.000767593 -0.00512875
219 1 2 0.146593 10.3337 13.346 0 0 -1 0.00380988 -1.84464e-05 0.00498029
220 1 2 -1.15149 10.962 12.7772 0 0 -1 0.0011172 -0.00091861 0.00618021
222 5 2 -2.91154 12.5788 12.9887 0 0 -1 0.00189945 0.00353194 -0.00326317
273 1 2 -3.24996 11.7731 9.24788 0 0 -1 0.000479191 -0.00119042 -0.0036703
274 1 2 -3.62148 10.6081 8.26777 0 0 -1 -0.000101572 -0.00230424 -0.00360845
276 1 2 -4.31012 9.43897 9.05428 0 0 -1 -0.00223978 -0.000748931 0.00423095
283 9 2 -1.58747 9.59967 10.2536 0 0 -1 0.0176279 -0.0129937 -0.0102297
309 9 2 0.550525 9.62649 12.6106 0 0 -1 0.00691103 0.00292411 0.00971331
311 9 2 -1.92429 10.1869 12.6984 0 0 -1 0.0178531 0.00798305 0.00209491
312 9 2 -0.956412 11.3218 11.761 0 0 -1 0.0361242 -0.00621728 -0.00134754
389 9 2 -2.99406 11.376 10.2379 0 0 -1 -0.026223 0.0166676 -0.0448021
393 10 2 -3.62132 9.02004 9.79575 0 0 -1 0.0114736 -0.0262251 -0.00919516
199 1 2 -0.865059 9.33618 9.47665 0 0 -1 -0.00141468 0.00727004 0.00501732
200 1 2 -0.974079 10.269 8.23418 0 0 -1 -0.0067823 -0.00963376 -0.00151839
202 1 2 -0.765563 11.7706 8.65089 0 0 -1 -0.0014576 -0.00389359 0.00195185
280 1 2 -2.347 10.0744 7.5097 0 0 -1 -0.00228336 -0.00860343 -0.00886178
281 9 2 -1.03808 8.28867 9.19882 0 0 -1 -0.0114215 0.0132975 0.0172943
282 9 2 0.133626 9.40092 9.92776 0 0 -1 0.0132521 -0.0208114 0.0247051
287 9 2 -0.230784 11.8101 9.60861 0 0 -1 -0.00877292 -0.00984322 -0.00925585
396 9 2 -2.48472 9.0176 7.24463 0 0 -1 0.0174997 -0.0213766 0.0183077
201 1 2 0.163169 9.85459 7.25577 0 0 -1 -0.00292582 0.00265803 -0.00312581
284 9 2 1.14896 9.9791 7.72258 0 0 -1 -0.0230941 -0.0128566 -0.00831068
285 9 2 0.14477 10.4656 6.34401 0 0 -1 -0.00234934 -0.0097379 -0.0132483
286 9 2 0.0624813 8.80343 6.95601 0 0 -1 0.00583587 0.015435 -0.00865739
288 9 2 -0.101484 12.2716 7.93456 0 0 -1 -0.0133256 -0.00564741 -0.0104694
395 9 2 -2.26888 10.5989 6.54776 0 0 -1 0.0256572 0.0220164 0.0194772
306 10 2 3.38593 12.8929 12.908 0 0 -1 0.000241491 -0.0148358 -0.0152896
ITEM: TIMESTEP
500
ITEM: NUMBER OF ATOMS
396
ITEM: BOX BOUNDS pp pp pp
-1.3455374323682250e+01 1.3455374323682250e+01
-1.3455374323682250e+01 1.3455374323682250e+01
-1.3455374323682250e+01 1.3455374323682250e+01
ITEM: ATOMS id type mol x y z ix iy iz vx vy vz
176 10 1 -4.27805 -6.72655 -5.96087 0 0 0 0.0040291 0.0121533 -0.00771108
177 10 1 -5.93395 -7.86473 -7.41759 0 0 0 0.00636621 0.0415483 0.00148515
175 10 1 -4.09746 -8.50813 -5.39513 0 0 0 -0.00649502 -0.00393158 -0.00951499
68 1 1 -6.03017 -7.85912 -6.34181 0 0 0 -0.00294578 0.00248311 -2.00193e-05
323 10 2 -6.05484 -11.9099 -10.2036 0 1 0 0.0143886 -0.0422393 -0.00241265
67 1 1 -4.74483 -7.61142 -5.46983 0 0 0 0.000873368 0.00471627 0.0035846
178 10 1 -6.82209 -7.12061 -6.1027 0 0 0 -0.0206933 -0.0188037 -0.0117716
321 10 2 -6.45623 -12.6733 -12.6684 0 1 0 -0.00389157 -0.0115885 0.0362275
362 10 2 -5.53921 -4.94414 -10.7723 0 1 0 -0.0193593 -0.0266108 0.0217382
251 1 2 -4.45971 -4.81639 -11.0384 0 1 0 0.00585439 0.0045985 0.000348411
254 4 2 -4.78165 -7.09268 -9.47123 0 1 0 0.00294337 0.00370587 -0.000861088
359 9 2 -4.95344 -5.47741 -13.1224 0 1 0 0.000443365 0.0160459 -0.0214513
69 6 1 -6.54338 -9.16478 -6.01011 0 0 0 0.000383696 0.00636019 -0.00459563
250 1 2 -4.26347 -5.74735 -12.2983 0 1 0 0.00603856 -0.00179638 -0.00904462
228 1 2 -5.63563 -12.8644 -10.0388 0 1 0 -0.0046361 -0.000719659 0.00274153
226 1 2 -6.07436 -13.5654 -12.2652 0 1 0 0.00675701 -0.000269651 0.00889001
179 12 1 -6.6086 -9.19333 -4.99474 0 0 0 -0.00209657 0.00384727 0.0040879
324 10 2 -6.4326 -13.5232 -9.54061 0 1 0 0.00727666 -0.00485808 -0.00255327
322 10 2 -6.87024 12.7565 -11.82 0 0 0 0.0197273 0.00150135 0.00674929
227 5 2 -5.07301 -13.2554 -11.2903 0 1 0 0.00224041 -0.00402134 -0.0026846
253 3 2 -3.77018 -6.41634 -9.34605 0 1 0 0.00104613 -0.00123914 0.00422541
360 9 2 -4.30387 -6.79757 -12.044 0 1 0 0.0198854 0.00507408 0.00931737
326 9 2 -4.63256 -12.2441 -8.22902 0 1 0 0.00871253 -0.0108578 0.0116962
246 1 2 0.748836 -5.41611 -12.6581 0 1 0 0.00536406 0.00270182 -0.000179679
247 5 2 -0.52786 -5.85397 -13.054 0 1 0 0.00249479 0.0015588 0.000943375
248 1 2 -1.61824 -5.71552 -12.1414 0 1 0 -0.00400418 -0.000185831 0.00247337
252 5 2 -3.58029 -5.19989 -9.95053 0 1 0 0.000589029 0.00805238 -0.00422283
255 2 2 -2.69893 -6.64592 -8.55946 0 1 0 0.011147 0.00649611 -0.00164069
256 1 2 -2.47005 -7.96621 -7.96324 0 1 0 -0.00698294 -0.000434916 0.00559893
257 1 2 -1.49132 -8.95929 -8.76808 0 1 0 0.00135048 0.00630803 -0.00275426
259 1 2 -0.137106 -8.33031 -8.97651 0 1 0 -0.00961194 0.000553095 0.00266846
260 1 2 0.925567 -9.1739 -9.92047 0 1 0 -0.0057104 -0.001103 -0.00314896
261 2 2 2.18789 -8.46755 -10.1351 0 1 0 0.00447838 0.00128586 -0.00151847
268 1 2 0.118485 -9.26418 -11.2381 0 1 0 -0.0016789 -0.00264738 0.00608388
269 1 2 -1.19823 -10.0653 -11.1278 0 1 0 0.00253349 -0.00074327 -0.00181077
271 1 2 -1.93683 -9.91552 -12.4616 0 1 0 0.00187121 0.0012552 -0.00456227
272 1 2 -2.14526 -9.39343 -10.0726 0 1 0 -0.00640701 -0.00120909 0.00608112
353 10 2 0.913101 -5.71604 -11.5867 0 1 0 -0.0225754 -0.00168763 -0.00167721
354 10 2 0.822403 -4.34719 -12.7601 0 1 0 -0.0076677 -0.0148018 -0.00933764
355 10 2 -1.67836 -6.56309 -11.5979 0 1 0 0.00423976 -0.0408075 -0.0164981
356 10 2 -1.49499 -4.87094 -11.4977 0 1 0 0.0175615 0.00744633 0.01886
363 11 2 -1.96222 -6.00259 -8.75932 0 1 0 -0.0374948 -0.00147416 0.0023066
364 10 2 -3.4246 -8.47857 -7.85073 0 1 0 -0.000602018 0.00703143 -0.00456567
365 10 2 -2.05487 -7.85776 -6.95599 0 1 0 0.00635183 -0.00170277 -0.018461
369 9 2 0.423023 -8.36151 -8.06286 0 1 0 0.0100822 0.000185236 0.00114183
370 9 2 -0.217967 -7.34099 -9.40524 0 1 0 0.0308917 0.00599621 -0.0141649
372 11 2 2.46276 -8.33096 -11.102 0 1 0 0.0099009 0.011577 0.00938684
378 9 2 0.714136 -9.83977 -12.0308 0 1 0 -0.0206785 -0.00586074 -0.0122346
379 9 2 0.00764112 -8.28042 -11.6986 0 1 0 -0.0152466 0.0071705 0.00544609
385 9 2 -2.21227 -8.92707 -12.7627 0 1 0 -0.0144121 -0.00905339 0.0182946
386 9 2 -2.44469 -8.40267 -10.4955 0 1 0 -0.00391655 0.00181163 0.00926452
387 9 2 -3.02369 -9.95764 -9.88025 0 1 0 0.0213504 -0.014779 -0.0241566
352 9 2 1.62798 -7.1993 13.4716 0 1 -1 0.0175205 -0.00880455 -0.0363862
258 1 2 -1.33784 -10.2416 -7.88698 0 1 0 0.00313387 -0.000761272 -0.0004907
262 3 2 3.11361 -8.17477 -9.16307 0 1 0 -6.51136e-05 -0.00624346 0.00226641
366 9 2 -1.17307 -9.82123 -6.87421 0 1 0 0.00476934 0.00495695 0.0020004
368 9 2 -2.24625 -10.834 -7.85549 0 1 0 0.0133792 -0.0133495 -0.010774
349 9 2 3.38798 -5.61413 -12.1912 0 1 0 -0.00899647 -0.00217426 0.0260539
263 4 2 3.01866 -8.32832 -7.94196 0 1 0 0.00221634 0.00297661 0.00146095
371 10 2 1.12863 -10.1536 -9.46585 0 1 0 0.0264081 -0.0111302 -0.00810672
342 9 2 3.05122 -10.7533 -11.5511 0 1 0 0.0125083 -0.00104241 -0.00549588
367 9 2 -0.525601 -10.9083 -8.1286 0 1 0 -0.0248309 -0.0157597 0.00366341
270 1 2 -1.03467 -11.648 -10.9064 0 1 0 0.0107199 0.00228394 0.0054068
384 9 2 -2.86061 -10.5924 -12.4307 0 1 0 -0.0339589 0.0250955 -0.0143112
341 9 2 4.03676 -11.7279 -12.7417 0 1 0 0.00868331 -0.0147845 -0.0200146
382 9 2 -0.637372 -12.1521 -11.7601 0 1 0 0.00560624 -0.012059 0.0123197
249 1 2 -2.86362 -5.54976 -13.0039 0 1 0 1.01055e-06 0.00615521 -0.00045502
264 5 2 4.05997 -7.27648 -9.63748 0 1 0 -0.00128581 0.00277181 0.00154993
244 1 2 3.29823 -5.88119 -13.2733 0 1 0 0.00181849 -0.00337605 -0.00140615
350 9 2 3.73397 -5.00007 13.1349 0 1 -1 -0.00587535 0.0106364 -0.00354046
242 5 2 4.2077 -8.06504 -12.7001 0 1 0 0.00283666 -0.00404814 -0.000392119
239 1 2 4.04046 -11.2644 -11.7172 0 1 0 -0.00244228 0.00255774 0.00321005
380 9 2 -1.98322 -12.1957 -10.7295 0 1 0 -0.00200157 0.0168326 0.00134759
381 9 2 -0.450867 -11.8914 -9.98547 0 1 0 -0.0141583 -0.0329429 0.019627
238 1 2 4.24773 -12.4272 -10.733 0 1 0 0.00967484 -0.00241769 0.00939372
237 5 2 2.92254 -12.9961 -10.3552 0 1 0 -0.00289602 -0.00156222 -0.00297814
325 9 2 -3.79018 -11.8613 -9.62432 0 1 0 -0.0174237 0.0349377 -0.0014528
334 9 2 1.23647 -12.6793 -8.13844 0 1 0 -0.0196413 0.00492887 -0.000623927
315 10 2 -3.09769 -13.0362 -12.6915 0 1 0 -0.0151054 -0.0144219 0.00238135
383 9 2 -1.36451 -10.3705 -13.2771 0 1 0 0.0164446 0.00914623 -0.00689018
305 10 2 3.3543 -12.9854 12.8589 0 1 -1 -0.0268865 0.00977785 -0.000819065
229 1 2 -4.39166 -12.6687 -9.1722 0 1 0 -0.00308717 0.0039663 -0.000249192
374 10 2 4.66029 -5.94747 -8.07565 0 1 0 -0.0175221 -0.00544518 0.0150932
340 10 2 4.86742 -12.2076 -9.85329 0 1 0 -0.0109022 -0.0147569 0.0135452
339 10 2 4.77687 -13.1549 -11.3758 0 1 0 0.00779473 -0.00574639 0.0107232
265 1 2 5.11859 -6.74225 -8.67858 0 1 0 -0.00107165 -0.00435429 -0.0050906
373 10 2 5.46141 -7.55512 -8.01251 0 1 0 0.00499678 -0.0125648 0.00690411
266 1 2 6.34793 -6.10436 -9.39751 0 1 0 0.0110925 0.00109693 0.00526163
267 6 2 7.11217 -7.02932 -10.1904 0 1 0 -0.00295971 0.00465192 0.00154842
347 10 2 5.19719 -6.5921 13.1742 0 1 -1 0.0103051 -0.0133295 0.0055259
376 10 2 6.10028 -5.2014 -9.96996 0 1 0 0.00417528 -0.017472 0.00751106
377 12 2 6.64954 -7.16287 -11.0519 0 1 0 0.0149647 -0.00608289 -0.00840978
375 10 2 7.0258 -5.73361 -8.67039 0 1 0 -0.0146893 -0.0130051 -0.0185944
241 1 2 5.15899 -9.13381 -12.9101 0 1 0 0.000235534 0.00930655 -0.00415032
240 1 2 5.22499 -10.1603 -11.7018 0 1 0 0.00645013 -0.00636576 -0.000441663
343 9 2 5.27888 -9.42225 -10.8129 0 1 0 0.00327019 0.00189368 0.0349582
344 9 2 6.16938 -10.6584 -11.851 0 1 0 -0.000293563 0.0130707 -0.0110452
346 10 2 6.17422 -8.79126 -13.0862 0 1 0 -0.00767538 0.00422014 -0.0103098
361 10 2 -4.24174 -3.77658 -11.2687 0 1 0 0.0100728 0.0123044 0.0118156
328 9 2 -4.2447 12.0104 -8.97368 0 0 0 0.017843 0.0351638 -0.0097503
319 9 2 -4.80038 11.6806 -12.8748 0 0 0 -0.0366299 -0.0126853 -0.00153927
230 1 2 -3.61217 12.8475 -9.0464 0 0 0 -0.00264936 -0.00353873 0.00158639
231 1 2 -2.61835 12.9726 -7.92038 0 0 0 -0.00243642 0.000548726 0.00266719
232 5 2 -1.30444 13.1913 -8.3358 0 0 0 0.00332899 -0.000179706 -0.00213757
233 1 2 -0.343181 12.8397 -7.33461 0 0 0 0.00240705 -0.00124178 0.00170563
234 1 2 1.15097 13.1543 -7.94132 0 0 0 0.00776979 -0.00898792 0.000512547
235 1 2 1.60008 12.2897 -9.16424 0 0 0 0.00315183 -0.00408186 -0.00145313
236 1 2 2.99483 12.5991 -9.7284 0 0 0 0.00258212 -0.00659517 -0.00225679
327 9 2 -3.05514 12.6797 -9.96318 0 0 0 0.00112893 0.0106956 0.00352882
329 10 2 -2.9404 -13.2302 -7.18845 0 1 0 0.00430693 -0.016149 0.0114606
330 10 2 -2.55204 12.0189 -7.3887 0 0 0 -0.00825003 -0.0106868 0.0122841
331 10 2 -0.480037 13.3718 -6.38067 0 0 0 0.0177029 0.023856 -0.00824027
332 10 2 -0.444473 11.7694 -7.21424 0 0 0 -0.00421326 0.000145683 0.00389974
333 9 2 1.70792 12.7681 -7.15874 0 0 0 -0.00839696 -0.00854057 0.0392299
335 9 2 0.852878 12.4544 -9.89425 0 0 0 0.0154113 -0.00484086 0.00419591
336 9 2 1.54089 11.2256 -8.87284 0 0 0 -0.00321357 -0.0203461 0.0244234
337 10 2 3.7377 12.6125 -8.94176 0 0 0 -0.0122179 -0.0115965 0.00456944
338 10 2 3.30813 11.8242 -10.3989 0 0 0 0.00718508 0.00974463 0.00296491
308 10 2 1.90382 12.5559 -12.5162 0 0 0 -0.00390294 0.0254248 0.00428126
314 10 2 -1.2217 12.1295 -12.2367 0 0 0 -0.0115606 -0.00266334 -0.00116681
307 10 2 3.14929 11.4345 13.7743 0 0 -1 -0.0057663 -0.00314521 0.0306025
218 1 2 2.15543 11.8191 -13.3058 0 0 0 0.0042475 0.00426861 0.00743572
310 9 2 0.877668 10.4078 -12.1065 0 0 0 0.00818503 0.00419249 0.00798027
221 1 2 -1.06656 12.2837 -13.2718 0 0 0 0.0048806 0.000272114 0.00232078
313 10 2 -0.535661 13.2255 13.5612 0 0 -1 0.0118219 0.00605488 -0.00321607
41 1 1 -5.24577 -10.9082 -1.97852 0 0 0 0.00378675 0.00303776 -0.00285418
42 1 1 -6.03419 -11.1087 -3.24132 0 0 0 0.00634698 0.00177596 -0.00416765
43 1 1 -7.53804 -11.0027 -3.08902 0 0 0 0.00161042 0.00212169 -0.00676941
44 5 1 -7.89926 -9.59392 -3.25525 0 0 0 0.00377283 -0.00595905 -0.000164811
62 1 1 -4.65615 -6.15122 -0.895782 0 0 0 0.000449816 0.00196444 0.00678927
63 2 1 -5.27519 -6.58409 -2.1546 0 0 0 -0.0018592 0.00308914 0.00399434
64 3 1 -4.49401 -6.74618 -3.26362 0 0 0 0.00143012 -0.00242422 0.000699708
66 5 1 -5.25929 -7.22804 -4.21792 0 0 0 -0.000806595 -0.000590022 -0.00164903
70 1 1 -5.56301 -6.77444 0.219478 0 0 0 -0.0045643 -0.000369115 0.00408403
104 9 1 -7.49913 -9.35792 1.46552 0 0 0 0.0154725 0.0051347 0.00505785
107 10 1 -5.50497 -10.8381 1.69507 0 0 0 0.00690004 0.0165366 0.00504998
141 10 1 -3.18812 -10.9426 -2.77224 0 0 0 -0.00213 0.00717751 0.00694717
143 9 1 -5.16775 -11.9484 -1.53902 0 0 0 0.0204286 0.000778058 0.0111565
144 9 1 -5.72701 -10.2759 -1.31011 0 0 0 -0.0116366 -0.00446023 -0.0134877
145 9 1 -5.66143 -10.4703 -4.01432 0 0 0 0.0248713 -0.0129199 0.0127405
146 9 1 -5.84883 -12.1326 -3.65761 0 0 0 -0.010269 -0.0191856 -0.00489461
147 10 1 -7.77758 -11.3175 -2.06736 0 0 0 0.00639504 0.00153937 -0.000143361
148 10 1 -8.11142 -11.6713 -3.76451 0 0 0 -0.0186387 -0.0178038 0.0158789
154 9 1 -8.85641 -7.68706 -1.37199 0 0 0 0.0122783 -0.00749495 -0.0168428
174 11 1 -6.25754 -6.8246 -2.17475 0 0 0 -0.0195534 0.0157431 0.0176969
180 9 1 -5.43637 -7.87324 0.151662 0 0 0 0.012292 -0.00253737 0.00126583
181 9 1 -6.56637 -6.57668 -0.006892 0 0 0 0.0288402 -0.0293558 -0.0354653
184 9 1 -4.12476 -8.32004 2.34469 0 0 0 0.00762553 0.00650469 0.00548373
47 1 1 -9.66306 -7.30916 -2.01912 0 0 0 -0.000821667 -0.00513538 -0.000190095
71 1 1 -5.16329 -6.40896 1.70967 0 0 0 0.0028517 -0.00266587 0.0063167
185 9 1 -6.45436 -7.79936 2.81349 0 0 0 -0.00976467 0.0220181 0.0118739
18 1 1 -6.03303 -11.7695 1.94688 0 0 0 0.00324484 -0.00321534 -0.00226296
105 9 1 -7.63775 -11.5484 0.472463 0 0 0 -0.00669423 -0.00259549 -0.0126939
108 10 1 -5.75456 -12.7079 1.39576 0 0 0 0.0330049 -0.00394584 -0.0318521
153 9 1 -10.6428 -7.7235 -1.66321 0 0 0 -0.0267644 0.00165334 -0.0119381
73 1 1 -6.42065 -6.75116 2.57893 0 0 0 -0.00626687 0.00132709 0.00349387
101 10 1 -9.93709 -10.3344 0.997311 0 0 0 -0.0223564 -0.00163123 -0.016485
16 1 1 -7.95122 -10.1652 2.06438 0 0 0 -0.00144292 0.00398617 0.000623032
17 1 1 -7.49241 -11.5625 1.56975 0 0 0 -0.000106141 -0.00505641 -0.00239021
20 1 1 -4.67382 -12.1628 3.94937 0 0 0 -0.00382377 -0.000747429 -0.00589907
151 9 1 -8.5475 -7.2751 -3.94724 0 0 0 -0.0187822 -0.00127639 0.00986416
46 1 1 -9.38741 -7.77915 -3.46119 0 0 0 -0.0011233 0.00408752 8.69686e-05
186 9 1 -6.3601 -6.21559 3.518 0 0 0 -0.0235472 0.00124138 -0.0162083
45 1 1 -9.30482 -9.24763 -3.54379 0 0 0 0.0051074 -0.0065946 0.00335621
150 10 1 -10.0181 -9.72842 -2.85792 0 0 0 -0.00175202 -0.0201208 0.0234164
149 10 1 -9.55569 -9.48861 -4.58862 0 0 0 0.00139472 -0.0128615 -0.0251409
187 9 1 -7.3617 -6.54989 2.00664 0 0 0 0.000434871 -0.00354422 0.00247651
14 5 1 -9.79784 -8.64373 2.16764 0 0 0 -0.000560205 -0.000649385 -0.00135689
15 1 1 -9.51411 -10.0482 1.99408 0 0 0 -0.00145737 -0.00301455 1.07781e-06
100 10 1 -11.8104 -8.8918 1.60113 0 0 0 0.0173264 -0.00239378 -0.0190456
99 10 1 -11.2868 -7.22505 1.89401 0 0 0 -0.00980104 -0.0140645 0.000185987
152 9 1 -10.3076 -7.5012 -3.97913 0 0 0 0.00990355 0.00537356 -0.0012584
13 1 1 -11.1575 -8.25152 2.20328 0 0 0 -0.00267469 -0.00369188 -0.0051473
19 5 1 -6.00137 -11.9214 3.37861 0 0 0 -0.00330127 -0.00151568 -0.000253129
106 9 1 -8.12819 -12.299 1.99555 0 0 0 0.0107742 0.0205584 -0.00155169
102 10 1 -9.94983 -10.6181 2.79815 0 0 0 0.00453172 -0.00428032 0.0115015
103 9 1 -7.71766 -10.0083 3.15621 0 0 0 -0.000709061 0.00351868 0.0232619
97 9 1 -11.5012 -9.23239 4.17783 0 0 0 0.00108657 -0.00105118 0.00186681
12 1 1 -11.6819 -8.24338 3.68391 0 0 0 0.00755015 0.000977351 0.00284042
98 9 1 -12.8151 -8.18439 3.59434 0 0 0 -0.0146366 0.0215785 0.00771496
155 10 1 -8.66078 -5.39835 -2.12818 0 0 0 0.0286324 0.00941056 0.00954438
48 1 1 -9.66862 -5.81129 -1.83641 0 0 0 0.00215949 -0.00227788 -0.00254063
74 1 1 -4.97525 -4.8762 1.77823 0 0 0 0.00321337 0.00568977 -0.00763498
49 5 1 -9.98704 -5.55949 -0.448075 0 0 0 -0.00434453 -0.000542164 -0.00317696
94 10 1 -9.14941 -6.98092 3.82118 0 0 0 0.00410152 -0.0131676 0.00222976
95 9 1 -11.6316 -6.07725 3.95642 0 0 0 0.00332243 0.0217094 0.00430247
109 10 1 -4.42658 -13.1785 3.73174 0 0 0 0.0131864 -0.00114323 -0.0171328
156 10 1 -10.5029 -5.40127 -2.39792 0 0 0 -0.00129525 -0.0126626 -0.0152925
172 9 1 -5.5292 -4.1987 -1.03416 0 0 0 0.00971441 0.0131473 -0.00988883
188 9 1 -6.04738 -4.4313 1.54562 0 0 0 -0.016268 -0.000373991 0.0230506
11 1 1 -11.1804 -6.94256 4.5114 0 0 0 -0.00458981 -0.000991607 0.000478718
39 5 1 -3.2008 -10.1962 -0.846467 0 0 0 -0.00129517 0.000240502 0.00044314
40 1 1 -3.81077 -10.3602 -2.15656 0 0 0 0.0075824 0.00393582 -0.00616657
65 4 1 -3.27603 -6.63027 -3.31628 0 0 0 0.0031575 0.00481393 0.00225903
142 10 1 -3.93937 -9.39796 -2.65699 0 0 0 -0.00479688 0.00933222 0.00110377
173 10 1 -3.65079 -6.64144 -0.774292 0 0 0 0.00346994 0.00759794 0.0231479
72 1 1 -3.90133 -7.2511 2.18019 0 0 0 0.00306392 0.00860691 -0.00119628
183 9 1 -3.1589 -7.24209 1.3949 0 0 0 0.00748632 0.0417977 -0.00911748
182 9 1 -3.46386 -6.8433 3.1233 0 0 0 -0.0157802 -0.00430151 -0.00243171
110 10 1 -3.93674 -11.3949 3.69124 0 0 0 -0.00288619 0.0175932 0.00558692
38 1 1 -2.90509 -11.4621 -0.118673 0 0 0 0.00766248 0.0148429 -0.00313083
139 10 1 -2.16461 -12.033 -0.6333 0 0 0 -0.0146517 0.0108256 -0.00769434
140 10 1 -3.83925 -12.1005 0.0988124 0 0 0 -0.0143324 -0.0114568 0.00320689
169 9 1 -2.23678 -5.36679 0.691893 0 0 0 -0.0175974 -0.00240542 0.00581731
37 1 1 -2.31312 -10.9401 1.22945 0 0 0 0.00391994 -0.00219477 -0.00941661
136 9 1 -1.19739 -9.19215 0.901441 0 0 0 0.00014842 -0.00797291 -0.0108867
137 9 1 -2.9903 -10.3353 1.79286 0 0 0 -0.00208134 -0.0319722 0.000654514
36 1 1 -1.00663 -10.2262 1.14805 0 0 0 -0.00510622 -0.00459173 0.00550626
135 9 1 -0.420032 -10.6609 0.32069 0 0 0 0.0204054 -0.00243468 0.00550653
34 5 1 -0.8076 -9.38232 3.45381 0 0 0 0.00390914 -0.00923968 0.00436814
35 1 1 -0.120272 -10.1438 2.42634 0 0 0 -0.00198512 -0.0119471 -0.0067974
133 10 1 0.800718 -9.68415 2.14601 0 0 0 -0.0249786 0.0217442 -0.000528025
134 10 1 0.0243684 -11.1536 2.77948 0 0 0 -0.0106377 -0.0101941 0.0090979
138 9 1 -2.05698 -11.7866 1.75404 0 0 0 -0.03125 0.00328423 -0.0363379
33 1 1 -0.0248286 -9.05515 4.63862 0 0 0 -0.0073981 -0.00110777 0.0035334
131 10 1 0.978514 -8.66924 4.42589 0 0 0 -0.0223584 -0.0358289 0.00132244
127 9 1 -1.27925 -6.59852 3.75031 0 0 0 -0.0234363 -0.0323825 -0.0176782
128 9 1 0.267843 -6.14563 4.67125 0 0 0 0.0299678 -0.0177383 0.00353379
61 1 1 -4.56529 -4.61294 -0.736241 0 0 0 -0.000144066 0.00503683 -0.00125233
60 1 1 -2.57295 -4.39793 0.882872 0 0 0 -0.00580013 0.012945 0.00528227
189 9 1 -4.67481 -4.50282 2.82876 0 0 0 -0.0342385 -0.00543563 -0.00346632
170 9 1 -2.27736 -4.12563 1.91628 0 0 0 -0.00279188 0.0162302 -0.0159281
171 9 1 -3.80606 -4.2367 -1.42429 0 0 0 -0.000398359 0.000645824 0.00739378
59 1 1 -4.13829 -4.1875 0.679053 0 0 0 -0.000714646 -0.00628033 -0.00388187
168 9 1 -1.93803 -3.77498 0.226692 0 0 0 0.000720425 0.0153508 0.00620558
31 1 1 -0.76634 -6.55996 4.72578 0 0 0 -0.00596704 0.00164727 0.00105387
50 1 1 -9.4387 -4.33712 0.0880279 0 0 0 -0.00677001 -0.00855744 0.0025416
53 1 1 -9.11534 -1.83178 1.85878 0 0 0 -0.00868353 0.00593078 -0.00274819
54 5 1 -7.94144 -1.70758 1.04533 0 0 0 -0.00809987 -0.0021115 0.000655278
55 3 1 -6.67806 -1.94851 1.58112 0 0 0 0.00371826 -0.00227231 0.00647764
56 4 1 -6.32123 -1.90983 2.7632 0 0 0 -0.00919753 0.000227706 -0.00102491
57 2 1 -5.82947 -2.27044 0.570788 0 0 0 -0.00340962 7.06949e-05 -9.3146e-06
157 10 1 -8.43188 -4.47868 0.264765 0 0 0 -0.00142784 0.00995291 0.000531529
165 11 1 -6.1422 -1.94437 -0.33999 0 0 0 -0.0444042 -0.0157884 0.025947
51 1 1 -10.0746 -4.11892 1.5079 0 0 0 -0.00263976 -0.00638401 0.00670243
158 10 1 -9.6836 -3.50315 -0.632042 0 0 0 0.0161186 0.00501358 -0.0299622
159 9 1 -11.0697 -3.77705 1.4005 0 0 0 0.00809504 0.0107893 -0.0427401
163 10 1 -9.98504 -1.63376 1.2339 0 0 0 -0.00598448 -0.0101655 -0.00939379
160 9 1 -10.1698 -5.09862 1.95131 0 0 0 0.00480633 -0.0177861 -0.00520128
52 1 1 -9.32442 -3.21146 2.47394 0 0 0 -0.0117862 -0.00169925 -0.00260177
162 9 1 -8.3776 -3.68917 2.65907 0 0 0 -0.011558 -0.00333552 0.0139712
164 10 1 -9.13411 -1.04074 2.57109 0 0 0 -0.0142336 -0.0172054 0.00889873
161 9 1 -9.92038 -3.13089 3.34511 0 0 0 -0.00419003 -0.0101984 0.000529032
58 1 1 -4.42655 -2.66464 0.883553 0 0 0 -0.00451209 0.0079014 -0.00494353
166 10 1 -4.15117 -2.37412 1.90607 0 0 0 -0.000121411 0.00582581 -0.0189626
167 10 1 -3.7631 -2.09457 0.24968 0 0 0 -0.026472 -0.00495708 0.000211298
117 10 1 -4.69475 -7.02904 5.18549 0 0 0 0.0133436 0.00310687 0.00462627
1 1 1 -7.03996 -12.8968 9.45232 0 0 0 -0.00322694 0.00800662 0.000705564
2 1 1 -8.55171 -12.5018 9.49168 0 0 0 -0.00172925 -0.00222324 0.00222985
4 1 1 -8.88845 -11.6577 8.23166 0 0 0 0.000483464 0.00223718 -0.00631312
5 1 1 -9.1318 -10.1161 8.51374 0 0 0 -0.00600511 -0.0039464 -0.00211279
6 2 1 -9.10321 -9.51164 7.1472 0 0 0 -0.00607691 -0.000231786 0.00269407
75 1 1 -8.18432 -9.52982 9.48861 0 0 0 -0.00675314 0.00191177 -0.00286416
76 1 1 -8.23303 -10.1867 10.9166 0 0 0 0.00385399 -0.0048307 -0.00434058
82 1 1 -8.78276 -11.6707 10.8329 0 0 0 -0.00320667 0.0066634 0.00896182
89 9 1 -8.05112 -11.7524 7.53437 0 0 0 -0.0032969 0.01519 0.00388388
90 9 1 -9.76938 -12.1473 7.79401 0 0 0 0.0075646 -0.00881101 -0.0214711
91 10 1 -10.1287 -9.93776 8.8648 0 0 0 -0.0161275 0.00712241 -0.0183464
92 11 1 -8.70583 -10.114 6.4254 0 0 0 0.0070063 0.00613668 -0.00977724
197 9 1 -9.85265 -11.677 10.9469 0 0 0 0.00349258 -0.00759215 -0.00670507
198 9 1 -8.40841 -12.2689 11.7002 0 0 0 0.0217043 -0.0277628 0.0289495
77 1 1 -9.29585 -9.43358 11.8015 0 0 0 0.00147007 -0.00614674 0.0048758
114 9 1 -6.06934 -10.3448 5.57374 0 0 0 -0.00838692 0.0206334 -0.000602153
190 9 1 -8.56939 -8.48705 9.67172 0 0 0 0.00371339 0.0272388 0.0088178
194 9 1 -10.2859 -9.65729 11.3673 0 0 0 -0.032652 0.0122883 0.00465295
7 3 1 -9.43698 -8.22058 6.82848 0 0 0 -0.000295214 0.00429385 0.00209906
8 4 1 -9.81148 -7.32187 7.57325 0 0 0 0.0068054 0.00809485 0.00758239
9 5 1 -9.27336 -8.10049 5.49728 0 0 0 0.000306042 0.00144116 0.00680641
192 9 1 -9.19891 -9.79929 12.8363 0 0 0 -0.00629424 -0.0264035 0.010027
193 9 1 -9.1658 -8.35805 11.7988 0 0 0 -0.017803 -0.0184129 -0.0393986
25 1 1 -5.40996 -7.44001 5.97645 0 0 0 -0.00331246 -0.00049241 0.00512072
118 10 1 -6.35404 -7.81605 5.52758 0 0 0 -0.0114027 -0.00587112 -0.00348757
10 1 1 -9.60425 -6.93991 4.76709 0 0 0 -0.0141378 -0.00417413 -0.00507305
96 9 1 -11.7201 -6.81976 5.48762 0 0 0 -0.0273742 -0.0254661 0.00504229
85 9 1 -6.37502 -12.05 9.37591 0 0 0 0.00588211 0.0106663 0.00314781
191 9 1 -7.14014 -9.46107 9.11154 0 0 0 0.00433564 0.00178483 0.00330509
26 1 1 -5.87516 -6.29881 6.89183 0 0 0 0.00112857 0.00525481 -0.00170287
120 9 1 -6.37122 -5.61991 6.1537 0 0 0 -0.0126618 -0.0110844 -0.0127267
119 9 1 -6.49289 -6.82933 7.6132 0 0 0 -0.0107803 0.0068077 -0.0203459
93 10 1 -9.29631 -6.01623 5.25914 0 0 0 0.0196462 -0.0222811 -0.0036627
78 1 1 -6.85134 -10.2223 11.6563 0 0 0 -0.00356451 0.00362924 -0.00436469
195 10 1 -6.05362 -10.7222 11.1602 0 0 0 -0.00410543 -0.00736152 -0.0129402
196 10 1 -7.04722 -10.889 12.5981 0 0 0 -0.0142136 -0.00448045 0.0123009
22 1 1 -5.17242 -10.682 6.10613 0 0 0 -0.0101413 0.0114642 0.00269403
79 7 1 -6.43985 -8.92728 12.0459 0 0 0 0.00787988 -0.010426 0.00327023
111 9 1 -5.55968 -12.8542 5.66807 0 0 0 -0.0020573 -0.0150432 -0.000820317
21 1 1 -4.75426 -12.0933 5.52652 0 0 0 0.00432859 0.00416126 -0.000659305
113 9 1 -5.43747 -10.8435 7.12346 0 0 0 0.00785028 -0.0186904 -0.0233387
80 8 1 -5.89273 -7.92347 11.7119 0 0 0 0.000999083 0.0104715 -0.00428201
81 4 1 -5.50822 -6.843 11.5208 0 0 0 0.0010294 0.00260853 0.0037144
24 5 1 -4.66439 -8.44657 6.74336 0 0 0 0.00837755 -0.00063384 -0.00477487
27 1 1 -4.6878 -5.60054 7.53667 0 0 0 0.00650774 0.00209656 -0.00111647
122 9 1 -5.07527 -4.84634 8.23957 0 0 0 -0.0281776 0.0125187 -0.00389689
318 9 2 -4.92055 -12.6411 12.5369 0 1 -1 -0.00158411 -0.00155665 0.0185133
224 1 2 -4.51577 -13.5946 12.6537 0 1 -1 -0.00248195 -0.00407508 0.00132891
317 9 2 -4.47124 12.8921 11.6542 0 0 -1 0.0103721 -0.021024 0.00421473
83 9 1 -6.8099 13.5135 10.329 0 -1 0 0.013493 0.00804633 0.0254555
320 9 2 -6.16106 12.0075 12.8641 0 0 -1 0.0170434 -0.026034 -0.0312353
225 1 2 -5.38974 12.4554 13.5053 0 0 -1 0.0050087 -0.0120348 0.00450262
245 1 2 1.80927 -6.14786 13.28 0 1 -1 0.00388398 0.00882349 0.00688025
243 1 2 4.21053 -7.01894 13.236 0 1 -1 0.00299677 0.000592213 0.00139901
132 10 1 0.0155254 -9.8699 5.32526 0 0 0 0.0110988 0.0196251 -0.031312
357 9 2 -2.87503 -4.52372 13.6328 0 1 -1 0.00159798 0.00620317 0.00803476
32 1 1 -0.803094 -7.95799 5.36562 0 0 0 0.00252116 0.00178588 -0.00185044
115 10 1 -3.87174 -9.22174 4.93638 0 0 0 -0.00124092 0.00576835 0.0143922
129 9 1 -1.83605 -8.21281 5.71508 0 0 0 0.00473848 -0.021752 0.00290413
351 9 2 1.56668 -5.94187 12.2123 0 1 -1 0.0089399 -0.0348699 -0.0160072
302 9 2 1.75925 -11.0635 12.4707 0 1 -1 0.00254509 -0.0293211 0.0297275
116 10 1 -3.21693 -9.91066 6.43661 0 0 0 -0.0171358 0.0168599 -0.0151989
112 9 1 -3.83002 -12.4264 5.97197 0 0 0 0.00247682 -0.00741037 -0.0219154
23 1 1 -4.09673 -9.53054 5.96389 0 0 0 -0.00282113 -0.00040372 0.00412639
358 9 2 -2.85254 -6.08031 13.0034 0 1 -1 0.0210694 0.0260233 0.01073
208 1 2 -3.02429 -9.75298 10.6276 0 1 -1 0.00649199 -0.00781109 -0.00061931
209 1 2 -2.64173 -8.73219 9.50694 0 1 -1 0.00323124 -0.00783391 0.000794674
210 1 2 -1.01842 -8.47071 9.31572 0 1 -1 -0.00280222 0.00196677 -0.0047202
211 1 2 -0.0887545 -8.2567 10.5155 0 1 -1 -8.98598e-05 -0.00924342 -0.00448231
212 5 2 0.0810336 -9.48536 11.2975 0 1 -1 -0.00393345 -0.00293127 -0.00961706
213 1 2 0.703872 -10.4874 10.6056 0 1 -1 -0.000131623 -3.61773e-05 -0.00397974
291 10 2 -4.15225 -9.89435 10.5602 0 1 -1 -0.00526486 -0.000885649 0.0142792
292 10 2 -2.77167 -9.33261 11.6214 0 1 -1 0.008886 8.15065e-05 0.00780709
293 9 2 -3.17455 -7.82037 9.77369 0 1 -1 0.000761918 -0.00950114 0.00506999
294 9 2 -3.12879 -9.10835 8.60917 0 1 -1 -0.00090369 -0.00504972 -0.00307381
295 9 2 -0.551312 -9.13333 8.61603 0 1 -1 0.022427 0.00396868 0.0132347
296 9 2 -0.966366 -7.5056 8.88728 0 1 -1 -0.0106593 -0.0137942 0.0288049
297 10 2 -0.567045 -7.48219 11.1572 0 1 -1 -0.018034 -0.00904641 0.00623246
300 10 2 0.112012 -10.9449 9.83485 0 1 -1 0.0178065 -0.00742825 -0.0277417
207 5 2 -2.4257 -11.0582 10.5015 0 1 -1 -0.00441185 0.00480487 -0.00541906
205 3 2 -2.74957 -11.8873 9.47157 0 1 -1 -0.00135245 -0.00227187 0.00157844
206 4 2 -3.63839 -11.6788 8.70239 0 1 -1 0.00541273 0.00309829 -0.00113828
204 2 2 -2.10055 -13.0908 9.52209 0 1 -1 -0.00557428 -0.00272498 0.00294855
214 1 2 1.27569 -11.5569 11.6627 0 1 -1 -0.000950638 -0.000593135 -0.00434695
301 9 2 0.447645 -12.1545 12.103 0 1 -1 -0.0161696 0.00928906 0.00435136
121 9 1 -4.13765 -6.22144 8.24599 0 0 0 -0.00352812 -0.0187061 -0.00991057
316 10 2 -2.5985 -12.6483 12.6019 0 1 -1 0.0102313 -0.00201965 0.0086255
290 11 2 -1.65762 -13.3108 10.4054 0 1 -1 -0.00263866 -0.0191927 0.027328
298 10 2 0.880549 -7.89505 10.1701 0 1 -1 -0.0128562 -0.00504421 -0.0167634
215 1 2 2.31477 -12.4051 10.9673 0 1 -1 0.000665168 -0.00111759 -0.00584731
303 9 2 3.14024 -11.7932 10.6103 0 1 -1 0.00868082 -0.00742612 0.00461442
299 10 2 1.59703 -10.137 10.0034 0 1 -1 0.0328037 0.0288447 0.00114799
348 10 2 3.86031 -7.38306 12.2718 0 1 -1 0.0344122 -0.0329767 0.0198338
28 1 1 -3.68158 -4.91186 6.53241 0 0 0 0.00744323 0.00146857 0.0120904
130 9 1 -0.295564 -7.76664 6.33912 0 0 0 0.00954138 0.00148806 0.000940651
30 1 1 -1.56505 -5.41916 5.42028 0 0 0 0.00231578 0.000292457 0.00111142
29 5 1 -2.69332 -5.91198 6.18848 0 0 0 0.00308448 -0.00517343 -0.00384006
304 9 2 1.9118 -13.0502 10.2113 0 1 -1 -0.0136297 -0.0129036 -0.00599287
223 1 2 -3.06949 -13.3566 13.1625 0 1 -1 0.0066488 0.00332721 0.00403884
345 10 2 4.81746 -9.61205 13.0939 0 1 -1 0.00215165 0.00604778 0.00461248
123 10 1 -4.16841 -4.41326 5.65396 0 0 0 -0.0157626 0.00637217 0.00350155
124 10 1 -3.18486 -4.1487 7.11155 0 0 0 -0.0180142 0.0214961 -0.00482808
125 10 1 -1.90458 -4.72136 4.59846 0 0 0 -0.0103665 -0.00222181 -0.0168768
126 10 1 -0.89244 -4.74845 6.00892 0 0 0 0.0282359 -0.0170532 0.0186033
3 1 1 -9.45613 13.1075 9.47406 0 -1 0 0.0024003 0.00107949 -0.00203602
84 9 1 -7.01838 13.3292 8.51602 0 -1 0 -0.01768 0.0198854 0.0109747
87 9 1 -10.4995 13.2592 9.34075 0 -1 0 0.017848 -0.0223578 0.0345849
86 9 1 -9.09162 12.2652 8.79031 0 -1 0 0.00958517 -0.0217555 0.00385717
88 9 1 -9.36119 12.6932 10.4963 0 -1 0 -0.0459358 -0.0130816 0.00279139
279 4 2 -8.01496 10.2423 11.0269 0 0 -1 -0.00352614 0.00176967 -0.00532133
278 8 2 -7.0111 10.1279 10.4013 0 0 -1 -0.00465921 -0.00121243 -0.00148635
391 9 2 -5.62539 11.7332 7.13276 0 0 -1 0.0163814 0.00328236 -0.00159736
277 7 2 -6.01162 10.2145 9.69822 0 0 -1 -0.000176076 -0.0069618 -0.00638102
390 9 2 -5.23812 10.1547 6.45312 0 0 -1 -0.000483613 0.00760269 -0.00667093
275 1 2 -4.78976 11.0344 6.89364 0 0 -1 -0.00638409 -0.00628701 0.00367692
394 10 2 -5.25134 8.8351 8.32742 0 0 -1 0.00267786 -0.0148915 -0.00319453
289 10 2 -2.4476 12.8992 7.61543 0 0 -1 0.0142106 -0.00878339 0.0141233
392 9 2 -4.09544 11.5024 6.10725 0 0 -1 0.0315528 0.0143356 -0.00689676
388 9 2 -4.53204 12.5768 8.99674 0 0 -1 0.0240644 -0.0187947 0.00160243
216 1 2 2.99636 13.4292 11.9393 0 0 -1 0.00183798 0.000187827 -0.00629152
203 1 2 -2.35429 12.5998 8.71369 0 0 -1 0.00354123 0.00702016 0.000665237
217 5 2 2.01615 12.4098 12.3304 0 0 -1 0.00183047 0.000453058 -0.00523152
219 1 2 1.09499 10.7081 -13.1238 0 0 0 -0.000574568 0.00800973 -0.00182245
220 1 2 -0.272321 11.0273 13.097 0 0 -1 0.00837033 0.00165791 -0.0054437
222 5 2 -2.33449 12.345 12.9627 0 0 -1 0.00845481 0.000570864 -0.00236958
273 1 2 -3.72512 11.9221 9.08648 0 0 -1 -0.00632059 -0.00406379 0.00142677
274 1 2 -4.02365 10.7183 8.15915 0 0 -1 0.00170486 -0.0060189 0.0044542
276 1 2 -4.83259 9.65737 8.96501 0 0 -1 -0.00640782 -0.00301436 -0.000407913
283 9 2 -2.44406 9.59832 10.4622 0 0 -1 0.0294723 0.00737244 0.0316338
309 9 2 1.49259 9.81511 13.3065 0 0 -1 0.0136175 0.000682194 -0.000459608
311 9 2 -0.943168 10.1629 -13.743 0 0 0 -0.0158785 -0.0167099 -0.0206592
312 9 2 -0.00837584 11.1099 12.0689 0 0 -1 -0.0284961 0.0097587 -0.0191325
389 9 2 -3.62858 11.5671 10.1539 0 0 -1 -0.0111831 -0.0169318 -0.0141263
393 10 2 -4.22504 9.20214 9.70976 0 0 -1 -0.00527033 0.0301294 -0.0132837
199 1 2 -1.53554 9.26341 9.92511 0 0 -1 -0.0035463 0.0108262 0.00151761
200 1 2 -1.4468 10.1034 8.53845 0 0 -1 0.00319162 0.0122708 0.00575997
202 1 2 -1.17648 11.6181 8.84822 0 0 -1 -0.0018767 0.00359359 0.000615385
280 1 2 -2.6942 9.95556 7.669 0 0 -1 -0.013907 -0.00349452 0.000711718
281 9 2 -1.60032 8.16124 9.71158 0 0 -1 0.00855332 -0.0137977 0.0146155
282 9 2 -0.626598 9.49014 10.3921 0 0 -1 -0.0134671 0.0123782 -0.00836028
287 9 2 -0.750865 11.6588 9.85688 0 0 -1 -0.0343926 -0.0136004 0.0204353
396 9 2 -2.97336 8.92681 7.52107 0 0 -1 -0.00206667 -0.0339138 0.0210125
201 1 2 -0.298849 9.49002 7.75054 0 0 -1 -0.00106477 0.00246367 -0.00164684
284 9 2 0.672026 9.60494 8.28091 0 0 -1 0.00513534 -0.00566701 0.00570113
285 9 2 -0.246247 9.79814 6.71151 0 0 -1 -0.00810776 -0.00903931 0.0168644
286 9 2 -0.419869 8.39309 7.69372 0 0 -1 -0.0151188 0.00404539 0.0201694
288 9 2 -0.382529 12.0423 8.23397 0 0 -1 -0.00780034 -0.0282197 -0.00816486
395 9 2 -2.44083 10.2325 6.63112 0 0 -1 -0.00110742 0.00868225 -0.0206307
306 10 2 3.89438 12.9317 11.531 0 0 -1 -0.0308107 -0.0206109 0.0155135
ITEM: TIMESTEP
1000
ITEM: NUMBER OF ATOMS
396
ITEM: BOX BOUNDS pp pp pp
-1.3455374323682250e+01 1.3455374323682250e+01
-1.3455374323682250e+01 1.3455374323682250e+01
-1.3455374323682250e+01 1.3455374323682250e+01
ITEM: ATOMS id type mol x y z ix iy iz vx vy vz
176 10 1 -4.67662 -5.34401 -5.50436 0 0 0 0.000745067 0.00526694 -0.00797381
177 10 1 -5.61543 -6.85536 -7.44162 0 0 0 0.0162266 0.00753934 0.00253392
175 10 1 -3.96384 -6.99507 -5.61543 0 0 0 0.00474591 -0.00459509 -0.000100536
68 1 1 -6.06991 -6.73824 -6.44793 0 0 0 -0.000703452 0.0055865 5.48492e-05
323 10 2 -6.27169 -13.6013 -9.57486 0 1 0 0.0380893 -0.0268983 0.00427573
67 1 1 -4.91419 -6.4157 -5.45989 0 0 0 -0.00151948 -0.00206072 0.00104706
178 10 1 -6.81063 -5.92445 -6.33622 0 0 0 -0.0391577 0.00662658 -0.00936099
321 10 2 -6.49957 12.8521 -11.9446 0 0 0 0.00892492 -0.0218065 -0.012503
362 10 2 -4.85593 -4.22746 -11.3554 0 1 0 -0.0128303 0.000970036 0.0101838
251 1 2 -3.78294 -4.09915 -11.5369 0 1 0 -0.00084169 0.00306249 0.000291265
254 4 2 -4.43848 -6.47687 -10.1476 0 1 0 -0.002325 -0.00215986 0.00265267
359 9 2 -4.03958 -4.39944 -13.6763 0 1 0 0.0039915 -0.00916372 -0.0217115
69 6 1 -6.64796 -8.01899 -6.25374 0 0 0 0.000606918 0.00284622 -0.00376786
250 1 2 -3.49037 -4.90148 -12.8935 0 1 0 0.00495796 3.62264e-05 0.00249023
228 1 2 -5.34282 12.6476 -9.55158 0 0 0 0.0027321 -0.0110958 0.00415439
226 1 2 -5.69197 12.1523 -11.9225 0 0 0 -0.00191599 -0.00990451 0.0044616
179 12 1 -6.73509 -8.1329 -5.26821 0 0 0 0.0225071 0.00469674 -0.028175
324 10 2 -5.60031 11.724 -9.13861 0 0 0 0.0129361 -0.00809662 -0.0149256
322 10 2 -6.09814 11.2407 -11.6622 0 0 0 -0.0212377 0.0045691 0.00508631
227 5 2 -4.78102 12.5407 -10.8874 0 0 0 0.00220813 -0.00239782 0.00440843
253 3 2 -3.43483 -5.83219 -9.89428 0 1 0 -0.00136059 0.0052164 -0.00083196
360 9 2 -3.84185 -5.95042 -12.6992 0 1 0 0.0205004 -0.0319557 -0.0165794
326 9 2 -4.75466 -13.6346 -7.56948 0 1 0 -0.0214363 0.0011589 0.0108091
246 1 2 1.5815 -5.50626 -12.4062 0 1 0 0.00407984 0.00511944 0.00264622
247 5 2 0.322801 -5.5166 -13.0837 0 1 0 0.00525246 0.00217786 -0.00137424
248 1 2 -0.859519 -5.20868 -12.3502 0 1 0 0.00746868 -0.00606531 -0.000594813
252 5 2 -3.00657 -4.69473 -10.4806 0 1 0 0.000567983 0.00146489 -0.00140064
255 2 2 -2.45139 -6.25284 -8.9893 0 1 0 -0.00478612 0.00142553 0.00249066
256 1 2 -2.43389 -7.55928 -8.27667 0 1 0 -0.000538873 0.00114487 -0.00128951
257 1 2 -1.44535 -8.69242 -8.78584 0 1 0 -0.00716368 -0.00102585 -0.00245497
259 1 2 0.0418959 -8.14204 -8.70945 0 1 0 0.00339738 -0.00518136 0.00330065
260 1 2 1.09586 -8.91746 -9.54826 0 1 0 -0.00332513 0.0116806 -0.00278479
261 2 2 2.31189 -8.19241 -9.60288 0 1 0 0.00131289 -0.00171513 0.00331709
268 1 2 0.533564 -9.1018 -10.9614 0 1 0 7.16349e-05 0.000865584 0.0021952
269 1 2 -0.782063 -9.88693 -11.1143 0 1 0 0.00578918 0.00261091 0.00430705
271 1 2 -1.24013 -9.87507 -12.5607 0 1 0 0.00976717 -0.00774884 -0.00190868
272 1 2 -1.85661 -9.10137 -10.2953 0 1 0 -0.00179181 0.0122266 0.00373721
353 10 2 1.47685 -5.89136 -11.3916 0 1 0 -0.0129641 -0.0183032 -0.016817
354 10 2 1.95044 -4.4434 -12.2651 0 1 0 -0.0106367 -0.0180677 -0.00420674
355 10 2 -1.2277 -6.05814 -11.8303 0 1 0 -0.00333352 -0.0105783 -0.0230407
356 10 2 -0.827549 -4.3865 -11.6818 0 1 0 -0.00197177 0.0396825 -0.000901473
363 11 2 -1.50311 -5.83088 -8.95145 0 1 0 0.0319197 0.0107319 -0.0115461
364 10 2 -3.45127 -7.98567 -8.32823 0 1 0 0.0188555 0.000596417 -0.0160228
365 10 2 -2.14725 -7.42693 -7.21857 0 1 0 0.0035678 -0.0067735 -0.00690525
369 9 2 0.478377 -8.2244 -7.7057 0 1 0 0.00144231 0.0305931 0.00239339
370 9 2 0.0404839 -7.10988 -9.11533 0 1 0 0.0287629 -0.0142457 0.00792864
372 11 2 2.45533 -7.65747 -10.4499 0 1 0 0.000680241 -0.0169979 -0.0133427
378 9 2 1.34062 -9.59688 -11.5719 0 1 0 -0.00325383 -0.0141221 0.0128852
379 9 2 0.356466 -8.04387 -11.2669 0 1 0 0.0183554 -0.0190412 0.0176575
385 9 2 -1.35327 -8.78429 -12.894 0 1 0 -0.0146615 -0.0195241 -0.00745057
386 9 2 -2.04571 -8.24146 -10.8726 0 1 0 0.00424549 0.00571456 -0.0137794
387 9 2 -2.79399 -9.67377 -10.1106 0 1 0 0.014449 0.00577331 0.011951
352 9 2 2.22806 -7.46552 -13.0423 0 1 0 0.0103654 -0.0120476 -0.0263553
258 1 2 -1.56557 -9.86538 -7.79825 0 1 0 -0.00714691 0.00293285 -0.00319737
262 3 2 3.2752 -8.18818 -8.63758 0 1 0 -0.00173292 -0.00367185 -0.000499462
366 9 2 -1.59175 -9.48124 -6.8302 0 1 0 0.0204293 -0.00693351 0.00455914
368 9 2 -2.46491 -10.4328 -7.95216 0 1 0 0.00920728 0.00412579 -0.00691775
349 9 2 4.16243 -6.0102 -11.7315 0 1 0 0.000235123 -0.00799568 -0.00292679
263 4 2 3.2843 -9.05453 -7.75993 0 1 0 3.07941e-05 -0.00328407 0.00194616
371 10 2 1.27133 -9.88133 -8.96431 0 1 0 -0.0184204 -0.0125628 0.00584013
342 9 2 3.33681 -10.8704 -11.2865 0 1 0 -0.0151093 -0.0405995 -0.00381041
367 9 2 -0.745446 -10.5687 -7.84957 0 1 0 -0.00616015 0.0104307 -0.0171461
270 1 2 -0.600507 -11.3104 -10.6008 0 1 0 -0.00248775 0.00281002 -0.00094622
384 9 2 -2.18182 -10.4103 -12.6211 0 1 0 -0.0129476 0.0192595 0.0363121
341 9 2 4.13783 -11.8537 -12.584 0 1 0 -0.004554 -0.00311519 0.0200736
382 9 2 0.0969294 -11.7597 -11.3511 0 1 0 -0.0082123 0.015133 0.00192602
249 1 2 -2.02436 -4.93143 -13.3382 0 1 0 0.00432473 0.00196346 -0.00590237
264 5 2 4.27503 -7.39142 -9.17072 0 1 0 0.00162969 -0.00217688 0.00221419
244 1 2 4.02604 -6.21117 -12.8081 0 1 0 0.00282311 0.00455099 -0.00271017
350 9 2 4.35623 -5.18811 -13.2266 0 1 0 0.00258605 0.00607589 -0.00347574
242 5 2 4.76604 -8.3949 -12.27 0 1 0 0.00499381 0.00205834 -0.00240456
239 1 2 4.24898 -11.4797 -11.5654 0 1 0 -0.00511145 -0.00370315 -0.00132572
380 9 2 -1.51664 -11.9561 -10.6263 0 1 0 0.0120803 -0.0163945 -0.0168975
381 9 2 -0.20221 -11.3171 -9.63857 0 1 0 0.0244393 -0.0293588 0.0062277
238 1 2 4.31487 -12.6273 -10.6026 0 1 0 0.00821011 -0.00381917 -0.00249599
237 5 2 3.12656 -13.4241 -10.7202 0 1 0 0.00339733 -0.00561281 0.00352472
325 9 2 -4.26384 -12.586 -8.88313 0 1 0 0.00572364 0.0274698 0.023421
334 9 2 1.61327 -12.597 -8.34711 0 1 0 0.0136383 0.0234997 -0.0299792
315 10 2 -2.94127 -13.1687 -12.233 0 1 0 0.0102276 0.0105417 0.0215324
383 9 2 -0.493203 -10.3685 -13.1991 0 1 0 0.00181571 0.00300214 0.000965973
305 10 2 4.34844 -13.0891 11.7508 0 1 -1 -0.00510274 -0.00774314 -0.00604221
229 1 2 -4.32285 -13.622 -8.61503 0 1 0 7.73946e-06 0.00350748 0.00615241
374 10 2 5.52802 -7.4829 -7.46876 0 1 0 0.00314218 0.00310689 0.0192024
340 10 2 4.46724 -12.3133 -9.55293 0 1 0 0.0185178 -0.000462147 -0.0129054
339 10 2 5.19924 -13.206 -10.8497 0 1 0 -0.00683029 -0.00644887 0.000703314
265 1 2 5.55682 -7.57019 -8.56716 0 1 0 0.0070894 -0.00582748 -0.0013359
373 10 2 5.98227 -8.56502 -8.82507 0 1 0 0.032159 -0.0142605 -0.0329904
266 1 2 6.51609 -6.45264 -9.08579 0 1 0 -0.00282123 0.00595405 -0.00200506
267 6 2 6.8662 -6.70157 -10.4776 0 1 0 0.000809431 -0.000240464 0.00777305
347 10 2 5.85173 -6.87997 -13.1538 0 1 0 0.0202375 -0.0345193 0.00367183
376 10 2 6.04446 -5.51736 -9.03325 0 1 0 0.033129 -0.00209472 -0.0125399
377 12 2 6.04128 -6.88257 -10.9746 0 1 0 0.0229349 -0.0237092 -0.00544042
375 10 2 7.45076 -6.37014 -8.50004 0 1 0 -0.00795386 -0.00587211 -0.0292392
241 1 2 5.69183 -9.54185 -12.5015 0 1 0 -0.00085733 0.00445486 -0.00122433
240 1 2 5.51041 -10.536 -11.3949 0 1 0 -0.000592951 -0.00073823 0.00135328
343 9 2 5.35616 -10.0545 -10.458 0 1 0 0.0183717 -0.00907466 0.0125225
344 9 2 6.54778 -11.0737 -11.3743 0 1 0 -0.0273767 0.00401377 0.0021832
346 10 2 6.74443 -9.34442 -12.5466 0 1 0 -0.00581222 0.00866727 0.0292472
361 10 2 -3.47981 -3.00306 -11.6789 0 1 0 0.00257834 0.0180449 -0.015649
328 9 2 -3.11276 11.5061 -8.51594 0 0 0 0.0089685 -0.0027587 -0.013623
319 9 2 -4.38436 11.1871 -13.5011 0 0 0 0.0123603 0.0231087 -0.0265388
230 1 2 -2.96869 12.5881 -8.58091 0 0 0 0.0042404 -0.00390737 -0.00533672
231 1 2 -1.99773 12.9983 -7.44845 0 0 0 -2.8165e-05 0.000306996 -0.00292561
232 5 2 -0.634551 12.8718 -7.91681 0 0 0 -0.00156829 0.00240297 0.00175767
233 1 2 0.339609 13.1133 -6.97622 0 0 0 -0.00307415 0.00320284 0.000215307
234 1 2 1.68903 13.3672 -7.76606 0 0 0 0.00394925 0.00265801 -0.00103034
235 1 2 1.95286 12.2618 -8.84815 0 0 0 -0.00120742 0.00647595 -0.000727264
236 1 2 3.21811 12.35 -9.73467 0 0 0 -0.00545826 -0.00375285 0.00897214
327 9 2 -2.51702 12.7138 -9.49968 0 0 0 -0.0202897 -0.00118458 0.0210934
329 10 2 -2.2504 -12.8783 -7.12962 0 1 0 0.0110521 0.02132 -0.000931141
330 10 2 -2.14356 12.3618 -6.61322 0 0 0 -0.00690213 -0.0156688 0.0071433
331 10 2 0.174103 -12.8156 -6.53444 0 1 0 -0.00810049 0.00825126 0.00641286
332 10 2 0.352409 12.3067 -6.20087 0 0 0 0.020688 -0.0153421 -0.0167064
333 9 2 2.59799 -13.464 -7.07422 0 1 0 0.0073475 -0.0177388 -0.00346355
335 9 2 1.05931 12.1963 -9.52594 0 0 0 0.0020076 -0.00322519 -0.0193547
336 9 2 1.84187 11.3527 -8.31562 0 0 0 0.0255145 -0.011791 -0.0139467
337 10 2 4.094 12.3782 -9.12396 0 0 0 -0.00829275 -0.0125352 0.000380568
338 10 2 3.32904 11.3935 -10.2275 0 0 0 0.0140714 0.00363461 0.00829268
308 10 2 2.23275 -13.2256 -13.588 0 1 0 -0.00197816 0.016151 0.00200975
314 10 2 -0.883985 12.4189 -12.1032 0 0 0 -0.00468755 -0.00577057 -0.00801322
307 10 2 3.54587 12.5963 -13.2785 0 0 0 0.00333539 0.0030104 0.0296155
218 1 2 2.58549 12.7008 13.0492 0 0 -1 0.00672848 0.000598026 -0.00478361
310 9 2 1.48108 11.8862 -12.2234 0 0 0 0.00247262 0.00389463 -0.00274085
221 1 2 -0.741543 12.6971 -13.1561 0 0 0 -0.00403664 -0.00206352 -0.00558021
313 10 2 -0.303393 -13.2398 -13.2733 0 1 0 0.0218825 0.00383024 -0.00634833
41 1 1 -4.5494 -10.318 -2.39389 0 0 0 -0.000653147 0.0057303 -0.00492638
42 1 1 -5.04398 -10.3721 -3.88987 0 0 0 0.00392053 0.00842195 -0.00935681
43 1 1 -6.49787 -10.5984 -4.14775 0 0 0 0.00235705 0.00104186 -0.0043149
44 5 1 -7.26303 -9.48174 -3.59211 0 0 0 0.00631672 0.00806618 0.00631402
62 1 1 -5.28069 -5.84057 -0.607244 0 0 0 -0.0128279 0.00376226 -0.0036384
63 2 1 -5.67857 -6.46398 -1.91017 0 0 0 -0.00204063 -0.00301608 -0.00389589
64 3 1 -4.87802 -6.25804 -3.02819 0 0 0 -0.0049407 0.00320715 0.00863428
66 5 1 -5.46209 -6.7319 -4.19029 0 0 0 0.00271923 0.00574462 -0.00382237
70 1 1 -5.97384 -6.57422 0.597287 0 0 0 -0.00318854 0.00193318 -0.00396509
104 9 1 -7.85889 -8.89942 0.797467 0 0 0 0.00613558 0.0168624 0.0225032
107 10 1 -5.39801 -10.2574 1.53621 0 0 0 0.0262872 0.00763875 0.0198212
141 10 1 -2.49193 -11.155 -2.76367 0 0 0 0.0255815 0.0104136 0.00248693
143 9 1 -4.96839 -11.1725 -1.95143 0 0 0 -0.0281926 -0.0257092 0.00238648
144 9 1 -4.94187 -9.42768 -1.84136 0 0 0 -0.0111619 -0.0110877 -0.00480787
145 9 1 -4.73672 -9.43976 -4.4598 0 0 0 -0.00358948 -0.00150579 -0.0211781
146 9 1 -4.43957 -11.0856 -4.40425 0 0 0 0.0156473 0.00409292 0.0218071
147 10 1 -6.85794 -11.5199 -3.67388 0 0 0 0.00646517 -0.00551261 -0.0107525
148 10 1 -6.72433 -10.7127 -5.20996 0 0 0 0.00607577 -0.0217669 -0.00889657
154 9 1 -8.36392 -8.37484 -1.40177 0 0 0 0.0152093 0.00879452 -0.00349116
174 11 1 -6.49396 -7.07359 -1.95243 0 0 0 0.00647127 0.0103915 -0.029573
180 9 1 -5.71903 -7.59004 0.625755 0 0 0 -0.00804292 -0.00820953 -0.00770903
181 9 1 -7.0882 -6.51138 0.394399 0 0 0 0.00355881 0.0157843 0.00415757
184 9 1 -4.32645 -7.30565 2.94712 0 0 0 0.00735023 0.0114577 0.00141329
47 1 1 -9.34595 -8.01077 -1.84227 0 0 0 0.0011826 0.00443021 0.00350008
71 1 1 -5.75292 -5.88233 1.98711 0 0 0 0.00161255 0.00564155 -0.0038204
185 9 1 -6.6405 -7.5143 3.28093 0 0 0 0.00869064 0.00432289 -0.0068344
18 1 1 -5.97751 -11.2003 1.65993 0 0 0 -0.00206952 0.0117437 0.00101051
105 9 1 -7.32628 -10.9877 -0.000241159 0 0 0 0.0140241 -0.0225125 0.0026495
108 10 1 -5.40912 -12.0192 1.20048 0 0 0 -0.00491721 -0.0227258 -0.00555763
153 9 1 -10.1909 -8.55813 -1.35364 0 0 0 -0.0083123 -0.00125886 -0.00734612
73 1 1 -6.73738 -6.40679 3.12094 0 0 0 -0.00559002 0.00141153 0.00549193
101 10 1 -9.96419 -10.1461 0.428042 0 0 0 0.001862 0.0015856 -0.0242257
16 1 1 -8.15472 -9.69438 1.56222 0 0 0 -0.00402074 0.00445748 -0.000696274
17 1 1 -7.39855 -11.0202 1.05464 0 0 0 0.00378713 0.00486998 0.000305568
20 1 1 -4.97236 -11.6312 3.79694 0 0 0 -0.00615604 0.00085339 0.00363305
151 9 1 -8.64283 -7.57644 -3.88092 0 0 0 -0.0189277 0.00330038 -0.00142777
46 1 1 -9.28692 -8.32501 -3.40283 0 0 0 0.00482786 0.00321244 0.00310901
186 9 1 -6.54237 -5.83173 4.07711 0 0 0 0.00651446 -0.00558088 0.00399996
45 1 1 -8.7118 -9.63646 -3.73481 0 0 0 0.000361326 0.00190483 0.00289584
150 10 1 -9.12679 -10.4698 -3.12808 0 0 0 -0.000832912 -0.0081076 0.0351222
149 10 1 -8.99143 -9.82667 -4.77543 0 0 0 0.0007749 -0.000409916 -0.0207333
187 9 1 -7.74287 -6.37793 2.75201 0 0 0 -0.0088711 -0.00343296 0.00197354
14 5 1 -10.2592 -8.62619 1.76453 0 0 0 -0.00469281 -0.00741863 -0.00845572
15 1 1 -9.66322 -9.86266 1.40634 0 0 0 -0.00245146 -0.000590058 -0.00256704
100 10 1 -12.0833 -9.57578 1.87593 0 0 0 0.0145169 -0.0176697 0.0193587
99 10 1 -12.137 -7.79728 1.97882 0 0 0 -0.0115208 -0.0118143 0.0276665
152 9 1 -10.2649 -8.24915 -3.87032 0 0 0 0.015227 -0.00812073 0.0248643
13 1 1 -11.5571 -8.70031 2.26682 0 0 0 -2.44001e-05 0.000391636 -0.00438817
19 5 1 -6.21132 -11.4777 3.04373 0 0 0 -0.00136157 0.00284883 -0.00381501
106 9 1 -8.03269 -11.9147 1.32095 0 0 0 0.0111615 -0.00828372 -0.00787791
102 10 1 -9.97917 -10.7009 2.07303 0 0 0 0.0145112 -0.00226364 0.0180288
103 9 1 -7.84148 -9.44046 2.59271 0 0 0 0.0149524 0.00711266 -0.00876914
97 9 1 -10.5353 -9.40682 4.18563 0 0 0 -0.00462993 0.00801328 0.0134497
12 1 1 -11.4357 -8.80827 3.80832 0 0 0 0.000203572 0.00392693 -0.000207315
98 9 1 -12.2871 -9.3639 4.26156 0 0 0 0.0219991 -0.0166466 -0.00755473
155 10 1 -8.41353 -5.98497 -1.75271 0 0 0 0.007803 0.0166458 0.00861401
48 1 1 -9.37429 -6.50465 -1.57719 0 0 0 -0.00370582 -0.000367745 0.00296781
74 1 1 -5.93319 -4.32984 1.88979 0 0 0 0.000811443 0.000727142 0.00409728
49 5 1 -9.80619 -6.27474 -0.193575 0 0 0 0.00294274 -0.00147559 -0.00310026
94 10 1 -9.558 -6.7426 3.81379 0 0 0 -0.0135836 -0.00319106 -0.00513194
95 9 1 -12.021 -6.67079 4.00667 0 0 0 -0.000622054 -0.0140706 -0.00238329
109 10 1 -4.32918 -12.4941 3.48537 0 0 0 -0.0126598 -0.0115102 -0.0066697
156 10 1 -10.209 -6.09321 -2.23276 0 0 0 -0.0104381 -0.00822063 -0.0186041
172 9 1 -6.77438 -4.38836 -0.942539 0 0 0 0.00577862 -0.0189447 -0.00992543
188 9 1 -6.99349 -4.1945 1.91493 0 0 0 0.0163362 0.031107 0.028694
11 1 1 -11.4198 -7.46626 4.51934 0 0 0 -0.00724262 -0.00263353 0.00457682
39 5 1 -2.5752 -10.2084 -0.923946 0 0 0 -0.00515678 -0.00467356 -0.00238963
40 1 1 -2.99819 -10.3212 -2.26366 0 0 0 0.00608113 -0.00470623 -0.00399396
65 4 1 -3.90617 -5.5373 -2.98821 0 0 0 -0.00716033 0.000134643 -0.000290217
142 10 1 -2.66513 -9.44817 -2.76807 0 0 0 0.00698543 0.00270624 0.00489926
173 10 1 -4.2379 -5.93815 -0.51337 0 0 0 -0.0178308 0.0212758 -0.0107926
72 1 1 -4.36749 -6.25827 2.58019 0 0 0 -0.000748048 0.00406608 0.00408685
183 9 1 -3.58815 -6.19434 1.88209 0 0 0 -0.0127972 -0.0126202 -0.0137976
182 9 1 -4.04208 -5.6874 3.47173 0 0 0 0.00469123 0.00254165 0.0195797
110 10 1 -4.3882 -10.7238 3.79306 0 0 0 0.0134246 0.0103091 -0.00460202
38 1 1 -2.89934 -11.3769 -0.0357149 0 0 0 -0.0017338 -0.00208914 0.00665453
139 10 1 -2.65332 -12.4213 -0.475276 0 0 0 -0.0188102 -0.00432952 0.0190621
140 10 1 -3.9471 -11.442 0.033302 0 0 0 -0.0211957 0.00402672 0.0111982
169 9 1 -3.50761 -4.36196 0.646113 0 0 0 -0.0322331 0.00248957 0.00773363
37 1 1 -2.19566 -11.156 1.26708 0 0 0 0.00277755 -0.0027297 -0.00918789
136 9 1 -0.506395 -10.1699 0.62187 0 0 0 -0.00299089 0.0118813 0.0158326
137 9 1 -2.59027 -10.2963 1.75953 0 0 0 0.00653343 -0.014507 0.0296496
36 1 1 -0.646803 -11.1252 1.19561 0 0 0 0.00217534 -0.00644702 0.00886313
135 9 1 -0.289663 -11.9629 0.575371 0 0 0 0.00417299 0.00583376 -0.0119105
34 5 1 -0.595696 -10.0039 3.37672 0 0 0 0.00522134 -0.00408903 -0.00044665
35 1 1 0.0351108 -11.0284 2.55416 0 0 0 0.00572335 -0.00566686 -0.00880391
133 10 1 1.04552 -10.7181 2.28141 0 0 0 -0.000548821 0.00736736 -3.459e-05
134 10 1 0.0625109 -11.9721 3.10593 0 0 0 -0.00836431 0.00501435 -0.00815935
138 9 1 -2.42434 -12.011 1.91936 0 0 0 0.000501384 -0.00549945 0.0115493
33 1 1 0.111955 -9.70796 4.53222 0 0 0 0.00823801 -0.00474267 0.0064897
131 10 1 1.09829 -9.47351 4.41624 0 0 0 0.00426312 0.00501433 0.00963924
127 9 1 -1.61459 -7.52325 3.85084 0 0 0 0.00364542 -0.00704683 0.00715917
128 9 1 0.248167 -7.20986 4.1066 0 0 0 -0.0198398 0.0204914 0.00909245
61 1 1 -5.71913 -4.38961 -0.701431 0 0 0 -0.00269598 0.00328556 -0.00016302
60 1 1 -3.96186 -3.40141 0.746763 0 0 0 -0.00333622 0.00168549 0.00138391
189 9 1 -5.49967 -3.75377 2.81782 0 0 0 -0.029051 0.0125447 -0.0275528
170 9 1 -3.64798 -2.86384 1.66811 0 0 0 -0.0230574 0.0247911 0.007852
171 9 1 -5.21309 -3.87357 -1.49258 0 0 0 0.00194459 -0.0168651 -0.00420124
59 1 1 -5.43033 -3.56147 0.619928 0 0 0 0.00188188 0.0014714 -0.000357101
168 9 1 -3.63283 -2.81321 -0.101459 0 0 0 0.0126654 -0.0100458 0.00851489
31 1 1 -0.794441 -7.32052 4.54234 0 0 0 -0.000422353 -0.00413758 -0.00110843
50 1 1 -9.80486 -4.93291 0.212877 0 0 0 -0.00122845 -0.00331543 -0.00199403
53 1 1 -10.9259 -2.2149 1.48061 0 0 0 -0.00278384 0.00201808 -0.00142274
54 5 1 -9.73565 -1.97284 0.687971 0 0 0 -0.00571572 -0.00112698 -0.00445216
55 3 1 -8.51873 -1.89942 1.25415 0 0 0 -0.0105186 0.00132458 -0.0043758
56 4 1 -8.27022 -1.6864 2.42608 0 0 0 -0.0116191 -0.000637235 -0.00136175
57 2 1 -7.57706 -2.2105 0.309428 0 0 0 -0.00192523 -0.00519023 0.00371349
157 10 1 -8.84309 -4.64921 0.736257 0 0 0 -0.024741 -0.016602 0.00122094
165 11 1 -7.76739 -2.50535 -0.650069 0 0 0 0.0233396 -0.0274048 -0.00079796
51 1 1 -10.9763 -4.81417 1.27931 0 0 0 0.00389891 -0.0117678 0.00109558
158 10 1 -10.0111 -4.18478 -0.568106 0 0 0 -0.00459991 0.0314321 0.00977513
159 9 1 -12.0039 -4.92065 0.860392 0 0 0 -0.0252648 -0.0128423 0.0127439
163 10 1 -11.866 -2.09785 0.967094 0 0 0 -0.0137446 -0.0307418 0.00691172
160 9 1 -10.949 -5.65661 1.9951 0 0 0 0.003069 -0.00924433 0.0276349
52 1 1 -10.8025 -3.5933 2.19276 0 0 0 -0.00932553 -0.00204552 -0.00848373
162 9 1 -9.82091 -3.7343 2.55353 0 0 0 9.4488e-05 0.00166771 -0.000167081
164 10 1 -10.9642 -1.41973 2.22465 0 0 0 -0.0240301 -0.00124238 0.00556137
161 9 1 -11.5533 -3.6609 2.96466 0 0 0 -0.0113927 -0.0139795 0.00940224
58 1 1 -6.11964 -2.13189 0.53045 0 0 0 -0.00356848 0.00402723 -0.000874542
166 10 1 -5.95806 -1.56483 1.42543 0 0 0 -0.00770405 -0.00355815 -0.0188298
167 10 1 -5.68769 -1.56335 -0.314129 0 0 0 -0.0131496 0.00472238 0.0114407
117 10 1 -4.68515 -7.19275 5.54668 0 0 0 -0.00234272 -0.0257946 0.00839315
1 1 1 -7.3826 -12.9355 9.47393 0 0 0 -3.08397e-05 -0.000208905 0.0126893
2 1 1 -8.7913 -12.2057 9.63024 0 0 0 0.00247982 -0.00196438 0.00315914
4 1 1 -8.98203 -11.3238 8.31985 0 0 0 0.00803329 -0.00617985 -0.00482722
5 1 1 -8.87645 -9.82672 8.53471 0 0 0 -0.00249212 -0.00320869 -0.0034112
6 2 1 -8.68309 -9.1297 7.32354 0 0 0 -0.00682829 -0.00198783 0.00562281
75 1 1 -7.96633 -9.39932 9.66604 0 0 0 0.00233896 0.00454661 0.00120615
76 1 1 -8.24928 -9.95246 11.1079 0 0 0 0.000434224 0.00128701 0.000514393
82 1 1 -8.89417 -11.4254 11.0358 0 0 0 0.00231704 -0.00201395 0.00570366
89 9 1 -8.20354 -11.6517 7.61681 0 0 0 0.00301842 -0.0352276 -0.020806
90 9 1 -9.89109 -11.5705 7.81373 0 0 0 -0.00519078 -0.0331542 0.0105649
91 10 1 -9.90708 -9.44827 8.86601 0 0 0 -0.00847588 0.0304415 -0.0132654
92 11 1 -8.13369 -9.48041 6.57324 0 0 0 0.0033324 0.0101397 0.0137559
197 9 1 -9.99634 -11.3581 11.272 0 0 0 -0.0183676 -0.000870446 -0.0266216
198 9 1 -8.52457 -12.0597 11.8004 0 0 0 -0.0193063 -0.00130317 0.0208153
77 1 1 -9.29958 -9.02798 11.8415 0 0 0 0.00482691 0.0101495 -0.00133005
114 9 1 -6.54581 -9.87496 5.4173 0 0 0 0.0031504 -0.00128402 -0.0211942
190 9 1 -8.02042 -8.30673 9.74257 0 0 0 -0.0238331 -0.00335792 0.0144685
194 9 1 -10.1869 -8.88275 11.3021 0 0 0 0.0178511 -0.00321601 -0.0145697
7 3 1 -9.53755 -8.14997 6.8454 0 0 0 -0.0026392 -0.00112875 0.00368142
8 4 1 -10.3534 -7.52472 7.52209 0 0 0 -0.00137455 0.00509114 -0.00782677
9 5 1 -9.21853 -7.91584 5.5355 0 0 0 0.000316643 0.000377575 0.00153666
192 9 1 -9.46644 -9.1962 12.8689 0 0 0 -0.0312702 0.00675378 -0.0073877
193 9 1 -8.93364 -7.99295 11.9166 0 0 0 0.00669832 0.00721992 0.0127017
25 1 1 -5.3953 -7.41247 6.38186 0 0 0 0.00154977 -0.00570042 0.00956328
118 10 1 -6.40448 -7.64716 5.91797 0 0 0 0.0414401 -0.00659761 0.0230877
10 1 1 -9.99153 -6.98542 4.76823 0 0 0 0.00270709 0.00370406 -0.00628886
96 9 1 -12.0093 -7.67379 5.44513 0 0 0 -0.00724634 0.00404226 -0.0128534
85 9 1 -6.53271 -12.2998 9.71865 0 0 0 -0.0102728 -0.00318707 0.0220318
191 9 1 -6.91584 -9.56051 9.31145 0 0 0 -0.00206471 -0.0163516 0.00115862
26 1 1 -5.47902 -6.19383 7.33962 0 0 0 -0.00557338 -0.00612793 -0.00316756
120 9 1 -6.02209 -5.36572 6.89755 0 0 0 0.0236248 -0.0129312 -0.0117146
119 9 1 -5.91409 -6.47392 8.3348 0 0 0 0.0213431 0.00592132 -0.012477
93 10 1 -10.1292 -6.04454 5.24336 0 0 0 -0.0076505 0.000236928 0.00861281
78 1 1 -6.96477 -9.97964 11.9527 0 0 0 0.00344467 0.00161291 -0.00260252
195 10 1 -6.26836 -10.6963 11.3541 0 0 0 -0.0246488 0.00548031 -0.0177109
196 10 1 -7.07511 -10.4781 12.9364 0 0 0 0.0102547 -0.0275409 0.015652
22 1 1 -5.82011 -10.4512 5.92909 0 0 0 -0.00517707 0.00244445 0.00306295
79 7 1 -6.39515 -8.62361 12.0857 0 0 0 -0.00443232 0.00797505 2.19366e-05
111 9 1 -6.48444 -12.3857 5.1679 0 0 0 0.00651509 -0.0185064 0.0238444
21 1 1 -5.52767 -11.8647 5.21592 0 0 0 -0.0016933 0.00558256 -0.00395514
113 9 1 -6.23033 -10.738 6.92234 0 0 0 -0.00453874 0.0240077 0.0197606
80 8 1 -6.04837 -7.57371 11.6262 0 0 0 0.00372797 -0.00994542 0.0037069
81 4 1 -5.52791 -6.57331 11.2573 0 0 0 0.00126675 0.00239932 -0.000138036
24 5 1 -4.89626 -8.54583 7.06178 0 0 0 0.00136989 -0.00206046 0.00378608
27 1 1 -4.04529 -5.64269 7.732 0 0 0 -0.00392854 -0.00316404 0.00414888
122 9 1 -4.16092 -4.82034 8.4138 0 0 0 0.00465366 0.00642233 -0.0229594
318 9 2 -5.14478 -12.8056 12.9649 0 1 -1 -0.023993 -0.0148472 0.0106494
224 1 2 -4.3514 13.3191 12.9238 0 0 -1 -0.00487683 0.00486978 0.00409928
317 9 2 -4.25007 13.1458 11.8298 0 0 -1 0.00999827 -0.00774576 -0.0115658
83 9 1 -7.3674 13.3346 10.3552 0 -1 0 0.00627236 0.0172942 -0.0233268
320 9 2 -5.84193 12.0267 12.8254 0 0 -1 0.00166863 0.0150961 0.0358075
225 1 2 -5.06231 12.0658 -13.3703 0 0 0 0.00344773 0.00396586 -0.00103623
245 1 2 2.55773 -6.42127 -13.2568 0 1 0 0.00432006 -0.00368878 0.00247608
243 1 2 4.88511 -7.30552 -13.2154 0 1 0 0.00525024 0.00366455 0.00109922
132 10 1 0.228277 -10.5602 5.16447 0 0 0 0.00459353 0.0238117 0.0307149
357 9 2 -1.84811 -3.98823 13.1687 0 1 -1 -0.0142033 0.00174757 -0.00670747
32 1 1 -0.699276 -8.62664 5.31793 0 0 0 0.00252708 0.0017895 0.00576134
115 10 1 -4.05296 -9.26171 5.26979 0 0 0 -0.00653795 -0.0120731 -0.00410111
129 9 1 -1.62591 -9.13394 5.59257 0 0 0 0.000444532 0.00731694 -0.0123133
351 9 2 2.50505 -6.09801 12.6034 0 1 -1 0.00517687 -0.013806 -0.016941
302 9 2 2.63486 -10.7725 11.5199 0 1 -1 -0.0143217 0.0236713 -0.00262139
116 10 1 -3.72537 -10.2003 6.66274 0 0 0 0.0138971 0.0220684 5.86363e-05
112 9 1 -4.76451 -12.4964 5.80887 0 0 0 -0.00508375 -0.00136509 -0.00119102
23 1 1 -4.48845 -9.61152 6.16259 0 0 0 0.00312093 -0.00132048 -0.000962519
358 9 2 -1.94285 -5.668 12.7883 0 1 -1 -0.0134153 0.0104184 -0.0274773
208 1 2 -3.06023 -10.1211 10.9305 0 1 -1 0.000712285 -0.0050931 0.00243749
209 1 2 -2.85445 -9.26419 9.75067 0 1 -1 0.00159822 -0.000411228 -0.00385521
210 1 2 -1.44033 -9.19926 9.09079 0 1 -1 -0.00510126 -0.00138131 -0.00283791
211 1 2 -0.311128 -8.79469 10.027 0 1 -1 0.00219403 -0.000524308 -0.00325642
212 5 2 0.208544 -9.9372 10.7368 0 1 -1 0.00195126 -0.00393437 0.00119849
213 1 2 1.04264 -10.838 10.0215 0 1 -1 0.000324594 -0.00408321 0.00785691
291 10 2 -4.14534 -10.1313 11.1436 0 1 -1 0.00367377 -0.0117482 -0.00779824
292 10 2 -2.50008 -9.71612 11.814 0 1 -1 -0.0357443 -0.00969663 -0.0140651
293 9 2 -3.1359 -8.24315 9.98209 0 1 -1 -0.0115772 -0.00555179 -0.00114588
294 9 2 -3.48095 -9.52252 8.92953 0 1 -1 -0.00153124 0.00940152 -0.00142802
295 9 2 -1.17593 -10.0926 8.59461 0 1 -1 -0.0266567 -0.006284 0.00146564
296 9 2 -1.54252 -8.35904 8.3161 0 1 -1 0.00240438 0.00719358 -0.0105942
297 10 2 -0.625114 -8.081 10.7393 0 1 -1 0.000301367 0.00535871 -0.0129484
300 10 2 0.435536 -11.7086 9.61478 0 1 -1 -0.00888703 0.0232904 0.011343
207 5 2 -2.55221 -11.4169 10.6759 0 1 -1 0.00382339 0.00154817 0.00497718
205 3 2 -3.13058 -12.2279 9.71676 0 1 -1 0.000295748 -0.00462507 0.00383887
206 4 2 -4.23993 -12.1267 9.22952 0 1 -1 -0.00206013 0.00213302 0.00616371
204 2 2 -2.5072 -13.4166 9.82787 0 1 -1 -0.000362756 0.00300405 -0.00166912
214 1 2 2.02926 -11.4709 10.9164 0 1 -1 0.00277273 0.00120154 0.00209934
301 9 2 1.47524 -12.1175 11.5926 0 1 -1 -0.010782 -0.00853073 0.0220061
121 9 1 -3.60483 -6.36677 8.42069 0 0 0 0.0213297 0.019416 0.0156822
316 10 2 -2.64355 -12.2031 13.2418 0 1 -1 0.00127408 0.00824839 -0.0032633
290 11 2 -1.82673 13.5198 10.5634 0 0 -1 -0.0236048 -0.0197882 -0.0117498
298 10 2 0.528729 -8.34197 9.45989 0 1 -1 -0.00708096 0.0332075 -0.00268432
215 1 2 2.94359 -12.4566 10.1205 0 1 -1 -0.00486187 -0.00204158 -0.00475133
303 9 2 3.70555 -11.8201 9.61249 0 1 -1 4.88307e-05 0.0151374 0.0058994
299 10 2 1.51304 -10.3175 9.11403 0 1 -1 -0.0245102 0.0269192 -0.0420731
348 10 2 4.62392 -7.57528 12.6905 0 1 -1 0.00439388 -0.00286376 0.00414933
28 1 1 -2.99117 -5.29793 6.68107 0 0 0 0.00427013 -0.000791223 -0.00109608
130 9 1 -0.152176 -8.54961 6.25123 0 0 0 -0.012278 -0.00316738 -0.0209613
30 1 1 -1.19439 -6.18318 5.45855 0 0 0 0.000128565 -0.000616568 -0.00370027
29 5 1 -2.32533 -6.49962 6.2051 0 0 0 -0.00654489 -0.00244325 0.00167512
304 9 2 2.29498 -12.9059 9.35048 0 1 -1 -0.0116144 0.00891286 0.00360967
223 1 2 -2.95949 -13.2255 -13.342 0 1 0 0.000117576 0.00165242 -0.00891113
345 10 2 5.39098 -10.0294 13.4834 0 1 -1 0.0318788 0.0186511 -0.0162527
123 10 1 -3.53882 -4.92906 5.85043 0 0 0 -0.0219308 0.0124944 0.0144037
124 10 1 -2.26219 -4.54479 7.09071 0 0 0 0.00573236 -0.0113824 -0.00386398
125 10 1 -1.31496 -5.23207 4.8907 0 0 0 0.0161371 0.0269029 -0.00315005
126 10 1 -0.347135 -6.14735 6.18992 0 0 0 0.0122608 -0.0173675 -0.00144607
3 1 1 -9.81229 -13.3918 9.6057 0 0 0 0.00156923 0.00644355 -0.0055866
84 9 1 -7.31302 -13.5358 8.55967 0 0 0 -0.0428515 -0.0231938 -0.0149133
87 9 1 -10.8531 -12.9467 9.39113 0 0 0 -0.00401529 0.00536441 0.0234666
86 9 1 -9.61891 12.869 8.79002 0 -1 0 0.0125361 -0.000599776 -0.0292171
88 9 1 -9.78344 12.9295 10.5038 0 -1 0 0.000238288 0.00734574 0.00756039
279 4 2 -8.57 9.61243 10.3411 0 0 -1 -0.00536158 0.00131124 -0.00354614
278 8 2 -7.47824 9.71587 9.92292 0 0 -1 0.00498111 -0.00358913 0.0014921
391 9 2 -6.20198 11.3538 7.14433 0 0 -1 -0.0291228 0.000637636 0.00551616
277 7 2 -6.33332 9.79039 9.61428 0 0 -1 0.00183061 -0.00513159 0.000718733
390 9 2 -5.40562 10.0432 6.13515 0 0 -1 0.0022481 -0.0116061 0.00122482
275 1 2 -5.21567 10.9169 6.86381 0 0 -1 0.00265796 0.00472229 0.00073827
394 10 2 -5.56954 8.64368 8.15329 0 0 -1 0.00251385 0.00605927 -0.00163192
289 10 2 -2.70874 12.7461 7.9645 0 0 -1 0.0158042 -0.0242794 -0.0100865
392 9 2 -4.76792 11.6817 6.32206 0 0 -1 -0.0134775 0.0172951 0.0253278
388 9 2 -4.99471 12.2532 9.18558 0 0 -1 0.0310357 -0.00935064 0.00667831
216 1 2 3.73652 13.2791 10.9936 0 0 -1 0.00949258 0.00550714 -0.0082705
203 1 2 -2.70547 12.3652 8.98837 0 0 -1 0.00189165 -0.00704664 0.00462466
217 5 2 2.85846 12.3895 11.6477 0 0 -1 0.00444169 -0.00159716 0.00223247
219 1 2 1.59442 11.6426 -13.2972 0 0 0 0.00195507 0.00736389 -0.00246849
220 1 2 0.189481 11.6578 13.0096 0 0 -1 0.00249266 0.000112032 -0.00240218
222 5 2 -1.97259 12.6804 13.0834 0 0 -1 0.000243736 -0.00155502 0.00273264
273 1 2 -4.08359 11.6518 9.23352 0 0 -1 -0.00141161 0.00777384 0.00216022
274 1 2 -4.39959 10.4688 8.20743 0 0 -1 -0.00438876 -0.000802615 0.000622314
276 1 2 -5.20092 9.32504 8.86704 0 0 -1 -0.00242543 -0.00043502 -0.000331695
283 9 2 -2.73823 9.55609 10.8218 0 0 -1 0.00801938 -0.0379923 -0.0286322
309 9 2 2.00825 10.6132 13.6473 0 0 -1 -0.0184011 -0.0148511 0.0255221
311 9 2 -0.227662 10.6405 13.1063 0 0 -1 1.53183e-05 -0.037246 0.00145285
312 9 2 0.150848 11.9151 11.8963 0 0 -1 0.00610737 -0.000128557 -0.0206935
389 9 2 -3.94327 11.2085 10.1838 0 0 -1 -0.00259702 0.00799409 -0.0235292
393 10 2 -4.54285 8.77622 9.58719 0 0 -1 -0.00151664 0.00819748 -0.00692563
199 1 2 -1.98483 9.08653 10.0951 0 0 -1 -0.00262733 0.00598937 0.00130326
200 1 2 -1.78039 9.96281 8.79577 0 0 -1 -1.94121e-05 -0.00734851 -0.00251448
202 1 2 -1.5713 11.4075 9.21864 0 0 -1 0.00343623 -0.00532075 0.00430612
280 1 2 -2.95248 9.82914 7.80974 0 0 -1 0.0016539 0.00214379 0.00481646
281 9 2 -2.42828 8.13597 9.85238 0 0 -1 -0.0106603 -0.00209018 0.00141099
282 9 2 -0.970052 9.02489 10.5644 0 0 -1 -0.0308186 -0.00678339 -0.0076535
287 9 2 -1.19993 11.3977 10.2244 0 0 -1 -0.0114234 -0.00266684 0.00279392
396 9 2 -3.01255 8.8076 7.40692 0 0 -1 0.00331771 -0.00808834 -0.0055148
201 1 2 -0.441684 9.38825 8.15609 0 0 -1 -0.00579411 -0.00492966 -0.00437292
284 9 2 0.324825 9.53576 8.88513 0 0 -1 0.00860272 -0.0186232 -0.0282711
285 9 2 -0.270541 10.0369 7.27736 0 0 -1 0.00245106 0.00651014 -0.000452916
286 9 2 -0.39839 8.333 7.87224 0 0 -1 0.00354371 0.00539211 -0.00552551
288 9 2 -0.691664 11.7714 8.60711 0 0 -1 0.0121054 -0.0232033 -0.0216318
395 9 2 -2.69717 10.3122 6.85718 0 0 -1 0.0360883 0.00408432 -0.0132243
306 10 2 4.47274 12.667 10.3699 0 0 -1 -0.00968827 0.00773022 0.00272915
ITEM: TIMESTEP
1500
ITEM: NUMBER OF ATOMS
396
ITEM: BOX BOUNDS pp pp pp
-1.3455374323682250e+01 1.3455374323682250e+01
-1.3455374323682250e+01 1.3455374323682250e+01
-1.3455374323682250e+01 1.3455374323682250e+01
ITEM: ATOMS id type mol x y z ix iy iz vx vy vz
176 10 1 -4.8383 -4.53932 -5.80092 0 0 0 0.0232997 -0.00682028 0.00477892
177 10 1 -5.61868 -6.24088 -7.64644 0 0 0 0.00689828 0.00317927 -0.00837484
68 1 1 -6.04965 -6.25543 -6.63697 0 0 0 0.00457552 0.00626043 0.000422491
67 1 1 -5.11915 -5.61332 -5.57496 0 0 0 0.000586208 0.00166559 0.00212228
178 10 1 -6.97682 -5.68896 -6.61452 0 0 0 -0.00126484 0.00182653 0.0264294
69 6 1 -6.14705 -7.60896 -6.29883 0 0 0 0.00207957 -0.00386723 0.00191311
179 12 1 -5.95221 -7.59677 -5.37854 0 0 0 0.00320769 0.0223887 -0.0132575
145 9 1 -3.95279 -9.00681 -4.20097 0 0 0 -0.0145893 0.001807 0.0076572
148 10 1 -5.61782 -10.0664 -5.61395 0 0 0 0.0128575 -0.0138027 -0.00698115
149 10 1 -8.00382 -9.68893 -5.08859 0 0 0 0.00926357 -0.00430456 -0.0201026
175 10 1 -4.17827 -6.19624 -5.50383 0 0 0 0.01768 0.00755223 0.00299264
254 4 2 -3.93072 -6.32202 -10.3068 0 1 0 -0.00428172 0.00290296 0.00273126
250 1 2 -2.80236 -5.57247 -13.1536 0 1 0 0.00457267 0.00185217 -0.00174212
253 3 2 -2.93145 -5.63641 -10.0987 0 1 0 -0.00210479 -0.00339206 0.00281675
360 9 2 -2.84976 -6.56829 -12.6991 0 1 0 0.00660107 -0.00749364 0.00281461
246 1 2 1.98467 -5.73619 -12.5145 0 1 0 0.00127519 -0.00221022 0.00388293
247 5 2 0.852711 -5.60083 -13.4002 0 1 0 0.00162316 -0.00779644 -0.00101832
248 1 2 -0.333937 -5.30072 -12.7578 0 1 0 0.00216572 -0.0015861 -0.00483044
252 5 2 -2.57546 -4.56496 -10.9513 0 1 0 -0.00752431 0.00103422 0.000282071
255 2 2 -2.05658 -5.80803 -9.10443 0 1 0 0.00403327 0.00512775 -0.0026195
256 1 2 -2.03924 -6.92779 -8.20038 0 1 0 0.00175025 0.00427181 0.00328104
257 1 2 -1.26624 -8.22865 -8.68619 0 1 0 0.00276526 0.00480508 0.000631777
259 1 2 0.281069 -7.82898 -8.71039 0 1 0 0.00775069 0.00476137 0.00601207
260 1 2 1.13902 -8.7705 -9.53344 0 1 0 -0.0002099 -0.00258702 0.00479287
261 2 2 2.50599 -8.25743 -9.50944 0 1 0 0.00361866 0.0019024 -0.00496177
268 1 2 0.664533 -8.98447 -10.9746 0 1 0 -0.00585879 -0.00100228 -0.00138227
269 1 2 -0.713372 -9.66867 -10.9697 0 1 0 0.0111207 -0.00276355 -0.000409197
271 1 2 -1.34585 -9.56023 -12.359 0 1 0 -0.00156701 -0.000295113 -0.00487798
272 1 2 -1.72478 -8.71752 -10.1358 0 1 0 0.00335481 0.00224416 -0.000771939
353 10 2 1.75657 -6.32739 -11.6074 0 1 0 0.0122586 0.0222459 -0.0151074
355 10 2 -0.5949 -6.04167 -11.9453 0 1 0 0.00270312 -0.0343064 0.00553302
363 11 2 -1.40861 -5.09231 -9.01891 0 1 0 -0.00646542 -0.0269045 -0.000491169
364 10 2 -3.07539 -7.23788 -7.88107 0 1 0 0.00296287 -0.00523964 -0.0021358
365 10 2 -1.52705 -6.58712 -7.28208 0 1 0 0.00325423 -0.00457219 0.00246132
369 9 2 0.748457 -7.82408 -7.73952 0 1 0 0.00232188 0.022676 -0.0025782
370 9 2 0.376252 -6.92397 -9.2614 0 1 0 -0.00300682 0.00645247 0.000720152
372 11 2 2.84771 -7.55382 -10.141 0 1 0 0.00811573 -0.0048542 -0.000564096
378 9 2 1.43692 -9.57665 -11.4282 0 1 0 -0.043959 -0.0409357 0.00650626
379 9 2 0.547145 -8.03219 -11.5089 0 1 0 0.0224595 -0.0105595 -0.00255612
385 9 2 -1.23968 -8.58625 -12.7995 0 1 0 0.00463037 0.0033655 -0.0101238
386 9 2 -1.81285 -7.80788 -10.7354 0 1 0 0.00492792 -0.0131987 0.0182234
387 9 2 -2.69587 -9.22758 -10.0762 0 1 0 -0.0216853 -0.015049 -0.0219697
352 9 2 2.74187 -7.52069 13.4476 0 1 -1 -0.00138918 -0.00378221 -0.0245878
258 1 2 -1.47703 -9.27429 -7.52078 0 1 0 -0.00586397 0.00147397 0.011132
262 3 2 3.4615 -8.57777 -8.51843 0 1 0 -0.00254889 -0.00299174 -0.00274498
366 9 2 -1.39747 -8.6893 -6.57062 0 1 0 0.0039556 -0.0373426 -0.00223768
368 9 2 -2.52968 -9.61895 -7.5422 0 1 0 -0.00119565 0.016408 -0.0159963
349 9 2 4.04 -7.13129 -11.2991 0 1 0 0.0141334 0.0165088 -0.021065
263 4 2 3.29939 -9.29953 -7.55762 0 1 0 -0.00392134 -0.000525985 0.00860588
371 10 2 1.1769 -9.72435 -9.07753 0 1 0 -0.00172254 0.0123771 -0.0172042
342 9 2 4.5534 -10.8289 -11.0682 0 1 0 0.0229891 -0.00869372 0.00597411
367 9 2 -0.808585 -10.0825 -7.4682 0 1 0 0.0128162 -0.00630197 0.026219
270 1 2 -0.626756 -11.1323 -10.4295 0 1 0 -0.0039354 0.000782071 0.00376288
384 9 2 -2.3526 -10.0146 -12.5284 0 1 0 0.0129517 0.0221473 0.0231364
341 9 2 4.56245 -11.956 -12.3782 0 1 0 0.0182719 -0.00793093 0.0260918
382 9 2 0.123557 -11.6385 -11.0637 0 1 0 0.00567894 -0.00164046 0.0112463
249 1 2 -1.53058 -5.43129 13.0963 0 1 -1 -0.000800142 0.000623487 0.00489531
264 5 2 4.63951 -7.94055 -8.72 0 1 0 0.00618624 -0.00254939 -0.0038429
244 1 2 4.31862 -6.67553 -12.2753 0 1 0 0.00315499 -0.00348459 0.000439285
350 9 2 4.69331 -5.7395 -11.8655 0 1 0 -0.000825351 -0.00386827 -0.0217796
239 1 2 5.14562 -11.5823 -11.5476 0 1 0 0.00525383 -0.000869541 -0.000797011
380 9 2 -1.61742 -11.6158 -10.628 0 1 0 -0.000237007 0.0272317 -0.0241335
381 9 2 -0.423836 -11.1515 -9.40317 0 1 0 0.00905912 -0.00300141 0.0121566
238 1 2 5.30495 -12.7356 -10.5431 0 1 0 0.0101789 0.00123355 -0.00778834
325 9 2 -4.71485 -13.5384 -8.15945 0 1 0 0.00342941 0.00440533 0.0277641
334 9 2 1.80004 -12.1005 -8.80607 0 1 0 -0.00856813 -0.0279101 0.00737806
315 10 2 -2.76196 13.2351 -11.8131 0 0 0 -0.0264954 -0.012965 -0.0139103
383 9 2 -0.649857 -10.1552 -13.0015 0 1 0 0.00461888 0.00800154 -0.00119482
329 10 2 -2.18706 -12.794 -7.41434 0 1 0 0.00142956 0.0311569 0.0128056
331 10 2 0.252797 -11.9887 -7.14606 0 1 0 0.0132478 0.00827224 -0.00191993
313 10 2 -0.336625 -13.2091 -13.1721 0 1 0 -0.00601295 -0.009575 -0.00421303
245 1 2 3.09731 -6.49929 -13.2426 0 1 0 -0.00394228 -0.00142821 5.26079e-05
223 1 2 -2.86665 -13.5084 -12.9009 0 1 0 0.000703461 -0.00637958 0.00632496
242 5 2 5.63225 -8.69986 -12.1596 0 1 0 0.00485695 -0.00264713 0.00402374
374 10 2 5.33989 -7.43592 -6.81996 0 1 0 -0.00835751 0.00882504 0.00154831
340 10 2 5.81922 -12.3758 -9.65835 0 1 0 0.000928648 0.0264085 -0.0234822
339 10 2 5.78154 13.263 -10.9209 0 0 0 0.00610397 0.00691749 0.00190233
265 1 2 5.69177 -7.8998 -7.79178 0 1 0 0.00256968 -0.00336836 -0.00405533
373 10 2 5.97732 -8.96113 -7.56058 0 1 0 0.000714577 -0.015105 -0.00186763
266 1 2 6.81489 -7.07255 -8.35672 0 1 0 -0.000542011 0.00190607 0.00985161
267 6 2 7.11764 -7.55717 -9.68208 0 1 0 0.00015276 -0.0064477 0.00645447
347 10 2 6.38359 -6.77136 -12.788 0 1 0 0.0348087 -0.0284465 -0.0175485
376 10 2 6.42207 -6.07027 -8.44584 0 1 0 -0.00127826 -0.0265873 -0.00882791
377 12 2 6.35487 -7.98232 -10.103 0 1 0 0.00596601 0.00434243 -0.0164664
375 10 2 7.64925 -7.20322 -7.74721 0 1 0 0.0046635 -0.0049809 -0.00323528
241 1 2 6.19003 -9.78468 -12.9553 0 1 0 -0.0039345 -0.00320706 -0.00414716
240 1 2 6.4962 -10.9527 -12.0219 0 1 0 0.00259989 0.00222333 0.00175662
343 9 2 7.02004 -10.4489 -11.1883 0 1 0 -0.0217722 -0.0112743 -0.0393955
344 9 2 7.13425 -11.7259 -12.4334 0 1 0 0.0210645 0.00715569 -0.0135704
346 10 2 7.1134 -9.47088 -13.4155 0 1 0 -0.00213768 0.00308316 0.0157862
243 1 2 5.48442 -7.37585 -12.8651 0 1 0 0.00331496 0.00519987 0.0039875
362 10 2 -4.35895 -4.28144 -12.1099 0 1 0 0.0293121 0.0281803 -0.000923949
251 1 2 -3.22969 -4.38108 -12.2246 0 1 0 0.00455291 0.000473871 -0.0089772
354 10 2 2.36377 -4.74634 -12.213 0 1 0 0.00438064 0.00411224 0.0107918
356 10 2 -0.345032 -4.29116 -12.3698 0 1 0 0.0244698 0.0244592 -0.00210531
361 10 2 -2.92037 -3.37276 -12.5218 0 1 0 0.0253011 -0.00868803 0.00838615
323 10 2 -6.10903 11.5918 -9.24011 0 0 0 -0.00856057 0.0134594 -0.0129158
321 10 2 -6.38015 11.1553 -11.6323 0 0 0 0.00511047 0.00624085 -0.00211264
228 1 2 -5.05857 11.5283 -9.38652 0 0 0 0.00120523 -0.00499694 0.000825584
226 1 2 -5.321 11.1017 -11.7019 0 0 0 0.00137656 -0.00602967 0.0013272
324 10 2 -4.73736 10.4765 -9.31534 0 0 0 -0.017821 0.0430289 -0.00270733
322 10 2 -4.95363 10.1262 -11.5078 0 0 0 -0.00999133 0.0253055 -0.00554949
227 5 2 -4.71731 11.9522 -10.6976 0 0 0 0.00307399 -0.00238138 -0.00797065
326 9 2 -4.52011 11.8263 -7.32261 0 0 0 0.00314294 -0.0227757 0.0177147
225 1 2 -4.81607 11.5631 -13.107 0 0 0 0.00290513 -0.00518294 -0.00453233
237 5 2 3.93492 -13.0753 -10.235 0 1 0 0.00283661 0.00674785 0.00265338
229 1 2 -4.2944 12.3292 -8.26539 0 0 0 -0.00146274 -0.000968057 -0.00192191
328 9 2 -2.41109 11.6225 -8.95871 0 0 0 0.00288761 -0.00314388 0.003329
230 1 2 -2.78759 12.515 -8.64767 0 0 0 0.003553 -0.00525197 -0.00270548
231 1 2 -1.8425 13.116 -7.63066 0 0 0 -0.00330373 -0.00285319 0.00460648
232 5 2 -0.602343 13.282 -8.22928 0 0 0 0.00061674 0.00305493 0.000972783
233 1 2 0.455756 -13.0301 -7.44978 0 1 0 0.00594691 0.00562351 0.00393094
234 1 2 1.85635 -12.9434 -8.11997 0 1 0 0.00407781 -0.00199038 -0.000864739
235 1 2 2.2178 12.762 -8.92851 0 0 0 0.00479356 -0.00666184 -0.00362249
236 1 2 3.73209 12.8351 -9.28395 0 0 0 -0.000669254 0.014596 0.00587784
327 9 2 -2.70162 13.1195 -9.54867 0 0 0 -0.00110284 -0.00275378 0.0051348
330 10 2 -1.78396 12.5881 -6.66281 0 0 0 -0.00852069 -0.00615276 0.0100907
332 10 2 0.668074 13.28 -6.5595 0 0 0 0.0200534 0.0111023 0.0108325
333 9 2 2.61779 -12.7096 -7.3001 0 1 0 0.0188514 -0.00842699 0.00492484
335 9 2 1.51315 12.6521 -9.74371 0 0 0 -0.0307447 0.00308659 -0.00605454
336 9 2 2.08466 11.7833 -8.43191 0 0 0 -0.0171987 -0.00205822 0.0143361
337 10 2 4.34747 13.0386 -8.42135 0 0 0 -0.00537037 -0.0195821 0.0129803
338 10 2 4.17484 11.9687 -9.67892 0 0 0 -0.0261898 0.00356329 -0.0213709
314 10 2 -0.528883 12.4231 -11.999 0 0 0 -0.0106099 0.0232213 0.00686921
307 10 2 3.24856 13.4625 -13.1661 0 0 0 -0.00926345 0.0129441 0.0360345
310 9 2 1.69708 11.7594 -12.3876 0 0 0 0.00816335 -0.0117078 0.0127834
221 1 2 -0.659865 12.6732 -13.0814 0 0 0 -0.00425938 -0.00382707 -0.00261181
219 1 2 1.715 11.7566 13.4221 0 0 -1 -0.000383192 0.00528793 0.00369774
309 9 2 2.21562 10.8705 13.0142 0 0 -1 0.0146136 0.0178439 0.00120941
41 1 1 -3.76631 -10.4849 -2.62389 0 0 0 0.000521318 0.00236921 -0.00227926
42 1 1 -4.15553 -10.0383 -4.05131 0 0 0 0.00302886 -0.00173837 0.00030967
43 1 1 -5.54701 -10.223 -4.51576 0 0 0 0.00734578 0.00373059 -0.00730161
44 5 1 -6.39204 -9.3121 -3.78775 0 0 0 0.00235141 0.0014972 0.00401813
62 1 1 -5.76445 -5.02423 -0.753501 0 0 0 -0.00521759 0.000826107 -0.000175842
63 2 1 -5.9854 -5.56469 -2.11539 0 0 0 0.0028837 0.00799028 -0.0027009
64 3 1 -5.10728 -5.41797 -3.18703 0 0 0 0.000646905 0.00810728 -0.00803411
66 5 1 -5.78399 -5.75119 -4.32208 0 0 0 -0.00345566 0.00176387 0.00259235
70 1 1 -6.3814 -5.90188 0.311749 0 0 0 -0.00572146 0.00327381 0.00510441
104 9 1 -8.71549 -8.49658 1.52837 0 0 0 -0.0135448 0.00757819 0.00466814
107 10 1 -5.75708 -9.31562 1.90345 0 0 0 -0.00249721 0.0155899 0.00791784
143 9 1 -3.96646 -11.5327 -2.42042 0 0 0 -0.0143203 0.0239656 -0.00328274
144 9 1 -4.35161 -9.90094 -1.90213 0 0 0 -0.0157343 0.0350059 0.0243785
147 10 1 -5.81865 -11.2756 -4.27336 0 0 0 0.0245548 -0.000640618 0.0170478
154 9 1 -8.38626 -8.16999 -1.6704 0 0 0 0.00282936 0.0234358 -0.00540058
174 11 1 -6.86834 -6.0269 -2.31295 0 0 0 -0.00884398 -0.0096956 0.019336
180 9 1 -5.95131 -6.90681 0.211914 0 0 0 0.0108251 0.0238769 -0.00622496
181 9 1 -7.42346 -6.08952 0.110968 0 0 0 -0.0389927 -0.0161183 -0.0329497
47 1 1 -9.17986 -7.91073 -2.41717 0 0 0 -0.0050106 0.00241047 0.00116814
71 1 1 -6.29518 -5.34345 1.8271 0 0 0 0.00547341 0.00352656 0.00369717
185 9 1 -7.06918 -7.32358 2.85267 0 0 0 0.00775984 -0.0176486 0.0064295
18 1 1 -6.29011 -10.3271 1.86676 0 0 0 -0.00932683 -0.000214601 -0.00149655
105 9 1 -7.57691 -9.80977 0.220421 0 0 0 0.00896888 0.00175252 0.0103488
108 10 1 -5.6726 -11.0172 1.24647 0 0 0 0.0226139 0.0214285 -0.0192551
153 9 1 -10.023 -8.65861 -2.42509 0 0 0 -0.00478646 0.0141543 0.0123052
73 1 1 -7.23649 -6.22073 2.78869 0 0 0 0.00038468 0.00590882 -0.00861027
101 10 1 -10.263 -10.4532 0.649173 0 0 0 0.0168607 -0.0135061 0.00733981
16 1 1 -8.80202 -9.52447 1.88785 0 0 0 -0.0023123 -0.00501573 -0.00520316
17 1 1 -7.73264 -10.3041 1.19424 0 0 0 0.0028726 -0.00476259 0.00409674
20 1 1 -5.24339 -11.5353 3.73232 0 0 0 -0.000853989 0.0115621 -0.000276785
151 9 1 -7.66218 -7.37016 -3.93096 0 0 0 0.0154404 -0.00821308 -0.009757
46 1 1 -8.45877 -8.06511 -3.80516 0 0 0 0.00649401 0.00139574 -0.00162666
186 9 1 -7.16646 -5.90849 3.84944 0 0 0 0.00646725 0.0150133 0.0158741
45 1 1 -7.81309 -9.42723 -4.02033 0 0 0 -0.00571731 -0.00108354 -0.00273955
150 10 1 -8.21822 -10.2837 -3.45043 0 0 0 -0.00790953 -0.0151019 0.0073509
187 9 1 -8.28803 -6.19883 2.42477 0 0 0 0.0124367 0.0163758 -0.0138199
14 5 1 -11.1797 -9.02869 1.72986 0 0 0 -0.00189081 -0.00183307 0.00326594
15 1 1 -10.2158 -10.0972 1.68273 0 0 0 0.0012989 -0.000328888 0.000654033
100 10 1 -12.9647 -10.0131 1.80288 0 0 0 0.00068392 0.014145 -0.0114263
99 10 1 -13.0451 -8.33318 2.10549 0 0 0 -0.00649188 -0.00520957 0.0197053
152 9 1 -9.15605 -7.92797 -4.61377 0 0 0 -0.0011334 -0.00272825 0.0126319
13 1 1 -12.4673 -9.22177 2.3036 0 0 0 0.00165859 -0.00618695 0.000230039
19 5 1 -6.42106 -10.8706 3.20444 0 0 0 0.00293047 -0.00395417 -0.0101204
106 9 1 -7.95722 -11.2852 0.965952 0 0 0 -0.00416979 -0.0218289 -0.00232968
102 10 1 -10.4008 -10.9274 2.40486 0 0 0 -0.0168654 -0.0304969 -0.00104294
103 9 1 -8.52163 -9.54834 2.92309 0 0 0 -0.0214134 -0.0182742 -0.023838
97 9 1 -11.5975 -10.1878 4.0327 0 0 0 -0.00147615 0.0143166 0.0150466
12 1 1 -12.302 -9.42341 3.84021 0 0 0 -0.00269984 -0.000703708 -3.212e-05
98 9 1 -13.3363 -9.7369 4.07675 0 0 0 0.0151191 -0.0186933 0.0217173
155 10 1 -8.81871 -5.74874 -1.8845 0 0 0 -0.0207299 0.0122861 -0.0184876
48 1 1 -9.64872 -6.44182 -2.15154 0 0 0 -0.00268663 -0.000605466 0.00262721
49 5 1 -10.442 -6.54894 -0.939319 0 0 0 -0.00756104 0.00306841 -0.00699112
94 10 1 -10.0184 -7.90102 3.57272 0 0 0 0.00239505 -0.00906186 -0.00547694
95 9 1 -12.4477 -7.30476 4.10288 0 0 0 -0.0190725 -0.0183645 -0.00964081
109 10 1 -4.96248 -12.3985 3.11436 0 0 0 0.0195597 0.0147745 -0.0249441
156 10 1 -10.2454 -5.99127 -2.99653 0 0 0 0.0049726 -0.00394784 -0.0155829
50 1 1 -10.4586 -5.36258 -0.0924311 0 0 0 0.00161133 0.00159886 -0.00870936
157 10 1 -9.48852 -5.25075 0.466545 0 0 0 0.00279633 -0.0156894 0.00404805
51 1 1 -11.6803 -5.49181 0.901233 0 0 0 0.000195122 0.000156151 -0.00334213
159 9 1 -12.6897 -5.7161 0.415552 0 0 0 0.000259807 -0.025673 0.00662795
160 9 1 -11.455 -6.44665 1.44583 0 0 0 0.00743788 -0.00718343 -0.0135416
141 10 1 -1.55024 -10.8804 -2.84233 0 0 0 0.0250438 -0.00793711 0.0133589
146 9 1 -3.49864 -10.5386 -4.80708 0 0 0 -0.0275922 -7.47228e-05 0.0167226
184 9 1 -4.59738 -6.39342 2.77104 0 0 0 0.00627858 -0.0123948 0.0101885
39 5 1 -2.03863 -10.4057 -0.86739 0 0 0 -0.00498239 -0.000932506 -0.00374169
40 1 1 -2.27746 -10.2752 -2.28512 0 0 0 0.0034208 -0.000791522 0.00294932
65 4 1 -4.00836 -4.8627 -3.0877 0 0 0 0.00228449 0.0109136 0.00343206
142 10 1 -2.11954 -9.2013 -2.43401 0 0 0 0.0123811 -0.00701685 0.021047
173 10 1 -4.6678 -4.97505 -0.616093 0 0 0 0.00270519 0.01367 0.000459874
72 1 1 -4.83404 -5.38231 2.40141 0 0 0 -0.00216063 -0.0020793 0.00203733
183 9 1 -4.09386 -5.04688 1.6584 0 0 0 -0.0318491 -0.00451328 0.0170087
182 9 1 -4.79424 -4.70766 3.26828 0 0 0 -0.0233866 -0.0112747 0.0131335
110 10 1 -4.38266 -10.8667 3.59919 0 0 0 -0.0113785 0.0103401 -0.00299391
38 1 1 -1.87065 -11.7603 -0.416448 0 0 0 0.00617835 -0.00222908 0.00228238
139 10 1 -1.06083 -12.3122 -1.02278 0 0 0 0.00925291 -0.0146106 0.00944009
140 10 1 -2.83469 -12.3094 -0.654577 0 0 0 0.030858 0.0162693 0.039448
37 1 1 -1.59978 -11.8472 1.06975 0 0 0 0.0033811 -0.000990989 -0.00997495
136 9 1 0.215676 -10.5775 1.00371 0 0 0 0.015519 -0.0165483 0.00174192
137 9 1 -2.29385 -11.1745 1.60871 0 0 0 0.00229824 -0.00917185 0.00265811
36 1 1 -0.163101 -11.5053 1.39918 0 0 0 0.000719291 -0.0031371 0.00946287
135 9 1 0.495166 -12.2887 0.990504 0 0 0 -0.0116836 0.0104236 0.0133333
34 5 1 -0.651602 -10.5214 3.5085 0 0 0 -0.0024992 0.00395434 -0.00265308
35 1 1 0.187205 -11.5073 2.91714 0 0 0 0.0024557 0.000267345 -0.00470381
133 10 1 1.19661 -11.1194 3.08566 0 0 0 -0.00215975 0.0015868 0.0149878
134 10 1 -0.0440394 -12.4822 3.35067 0 0 0 -0.00514668 -0.00105748 0.0116023
138 9 1 -1.80387 -12.8481 1.3836 0 0 0 -0.00381888 -0.00860653 0.00561189
131 10 1 0.840052 -9.57034 4.54198 0 0 0 -0.0345025 -0.0235785 -0.00292934
127 9 1 -1.85405 -7.9429 3.51974 0 0 0 -0.00541068 0.0164597 0.0182118
128 9 1 -0.242002 -7.34254 3.89613 0 0 0 0.0136037 -0.0222511 0.00554694
74 1 1 -6.8844 -3.84412 1.74076 0 0 0 -0.0114414 0.00597388 -0.00521417
172 9 1 -7.43791 -3.82498 -1.03335 0 0 0 -0.0133452 0.0138929 -0.00892328
188 9 1 -7.9848 -3.99357 1.6272 0 0 0 0.0382254 0.0219641 0.0251927
61 1 1 -6.4227 -3.61302 -0.736485 0 0 0 -0.00406225 0.00454683 0.000320459
189 9 1 -6.79983 -3.3983 2.72403 0 0 0 -0.00175254 -0.00664537 0.0047828
171 9 1 -6.07179 -2.95807 -1.53423 0 0 0 0.00537417 0.0242193 -0.0118286
59 1 1 -6.36767 -2.84302 0.631608 0 0 0 -0.00821173 -0.00306591 -0.00334156
53 1 1 -12.0782 -2.91096 1.36654 0 0 0 0.00345833 -0.00732177 -0.00127807
54 5 1 -10.9808 -2.45915 0.629258 0 0 0 -0.00662663 -0.00157726 -0.00145251
55 3 1 -9.83691 -1.89825 1.18296 0 0 0 0.00682598 -0.00473584 -0.00307626
56 4 1 -9.76218 -1.63143 2.38811 0 0 0 -0.00480873 -0.00683239 -0.00239805
57 2 1 -8.79398 -1.95096 0.234785 0 0 0 -0.0025471 -0.00510585 0.00412303
165 11 1 -9.14654 -2.19412 -0.662067 0 0 0 0.00333621 0.0135784 0.00243005
158 10 1 -10.5103 -4.47499 -0.729136 0 0 0 0.00365827 -0.044269 -0.0150274
163 10 1 -12.9794 -2.75885 0.788121 0 0 0 -0.00608074 0.00501552 0.0248734
52 1 1 -11.7715 -4.32361 1.97387 0 0 0 -0.000124319 -0.00225211 0.00165369
162 9 1 -10.8195 -4.28833 2.5868 0 0 0 0.00608199 -0.019245 -0.00531002
164 10 1 -12.2028 -2.15075 2.11101 0 0 0 -0.0022038 0.00309078 0.00563128
161 9 1 -12.6823 -4.61411 2.55532 0 0 0 -0.0222552 -0.00328079 -0.0200853
58 1 1 -7.39357 -1.58037 0.548947 0 0 0 -0.00692989 -0.00033578 0.00137833
166 10 1 -7.30389 -0.975032 1.47703 0 0 0 -0.0070028 -0.0114196 -0.0300718
167 10 1 -7.05493 -0.952377 -0.262224 0 0 0 -0.0204103 -0.00632011 -0.000932609
169 9 1 -4.08622 -2.76429 0.709157 0 0 0 -0.0240696 0.00408912 -0.00442234
60 1 1 -4.93856 -2.15076 0.861988 0 0 0 0.000661288 0.0069091 -0.0031183
170 9 1 -4.95705 -1.79293 1.88422 0 0 0 -0.0119621 0.00543754 -0.0123674
168 9 1 -4.73075 -1.23345 0.282002 0 0 0 0.000458204 0.0160081 0.00321882
11 1 1 -11.8953 -8.12351 4.56622 0 0 0 -0.00336973 0.0101278 -0.00111812
117 10 1 -4.84682 -7.31532 5.59053 0 0 0 -0.0121118 -0.0257005 0.0261454
1 1 1 -7.71119 -12.8763 10.2546 0 0 0 -0.00367341 0.00590897 -0.000450666
2 1 1 -9.03825 -12.1819 10.3159 0 0 0 -0.00179092 0.000416701 -0.00242785
4 1 1 -9.40355 -11.5476 8.91086 0 0 0 -0.000163341 -0.00661437 -0.00336796
5 1 1 -9.17712 -10.0688 8.64123 0 0 0 -0.00172446 -0.0053447 0.00185107
6 2 1 -8.9929 -9.69871 7.27455 0 0 0 -0.00653769 -0.00881952 0.00395233
75 1 1 -7.99258 -9.51631 9.50933 0 0 0 0.00315948 -0.00387627 -0.00281921
76 1 1 -8.35296 -9.66225 11.0586 0 0 0 -0.000555028 0.00474802 0.0158958
82 1 1 -9.00013 -11.0699 11.4625 0 0 0 0.00662536 0.00205746 0.00249868
89 9 1 -8.92662 -12.1714 8.15088 0 0 0 -0.0222589 -0.0335783 -0.0154258
90 9 1 -10.4794 -11.7881 8.74614 0 0 0 0.00376788 -0.0150568 0.0100704
91 10 1 -10.0379 -9.57331 9.02732 0 0 0 0.00297056 -0.00161283 -0.01148
92 11 1 -8.92591 -10.4741 6.60669 0 0 0 -0.006386 5.55423e-05 -0.0135363
197 9 1 -10.0317 -10.886 11.6232 0 0 0 -0.000156844 0.00759134 -0.0178139
198 9 1 -8.54697 -11.4943 12.424 0 0 0 -0.0231459 -0.00331414 0.0132584
77 1 1 -9.37949 -8.59178 11.4881 0 0 0 -0.000672045 -0.00356958 0.0017026
114 9 1 -6.47289 -10.0848 5.52392 0 0 0 0.00751528 0.0143236 0.010023
190 9 1 -7.79735 -8.46422 9.34447 0 0 0 -0.0158382 -0.00678492 -0.00870046
194 9 1 -10.4065 -8.75428 11.0557 0 0 0 0.0234005 -0.012497 0.00245379
7 3 1 -9.43274 -8.48376 6.73483 0 0 0 0.00218924 0.00499621 -0.00308259
8 4 1 -9.86665 -7.59534 7.40377 0 0 0 -0.000301105 -0.00445451 -0.00590743
9 5 1 -9.70574 -8.68182 5.41827 0 0 0 -0.00485363 0.00191601 0.00727887
192 9 1 -9.37785 -8.53625 12.5776 0 0 0 0.00453468 -0.0192678 -0.0181235
193 9 1 -9.0304 -7.62344 11.2147 0 0 0 -0.00883446 -0.00865398 -0.00140813
25 1 1 -5.35052 -7.50983 6.50371 0 0 0 0.000278361 -0.00687174 0.00158593
118 10 1 -6.42228 -7.57952 6.2474 0 0 0 -0.00629759 -0.00844633 0.0380699
10 1 1 -10.3579 -7.75839 4.58179 0 0 0 0.00321151 -0.00372483 0.0113361
96 9 1 -12.2108 -8.06257 5.61433 0 0 0 -0.0185966 -0.0162254 -0.010157
85 9 1 -6.83564 -12.1907 10.307 0 0 0 0.00357761 -0.0164539 0.0154453
191 9 1 -7.12044 -10.1043 9.32426 0 0 0 -0.00385883 -0.017246 -0.0171782
26 1 1 -5.31685 -6.35662 7.482 0 0 0 -0.0055085 0.00394419 -0.00142435
120 9 1 -5.95019 -5.54901 7.12089 0 0 0 -0.00147962 -0.00188776 -0.0135113
119 9 1 -5.86605 -6.71357 8.33653 0 0 0 0.00104461 -0.0378717 0.00871372
93 10 1 -10.1433 -6.75204 4.83306 0 0 0 0.0215301 -0.00577148 0.00411062
78 1 1 -7.01765 -9.55027 11.8386 0 0 0 0.00990598 0.0116688 0.00277915
195 10 1 -6.36925 -10.3427 11.4209 0 0 0 -0.00121454 -0.0253699 -0.00541146
196 10 1 -7.13941 -9.84734 12.8484 0 0 0 0.00167224 -0.00373194 -0.0148134
22 1 1 -5.7592 -10.7645 6.0321 0 0 0 -0.00366593 -0.00412288 0.00444873
79 7 1 -6.37636 -8.21958 11.8474 0 0 0 -0.00668552 -0.00130294 4.2467e-05
111 9 1 -6.22627 -12.8 5.15661 0 0 0 0.0275897 -0.00108355 -0.0267785
21 1 1 -5.42481 -11.999 5.12044 0 0 0 -0.0077372 0.00383911 0.000735208
113 9 1 -6.22856 -11.0361 6.94481 0 0 0 -0.0149411 -0.0192165 0.0193682
80 8 1 -5.58645 -7.38707 11.4248 0 0 0 0.00315646 0.00300174 -0.011871
81 4 1 -4.87486 -6.57466 10.9823 0 0 0 0.00108397 0.000849658 -0.00188097
24 5 1 -4.8642 -8.75417 7.17348 0 0 0 0.00202311 0.00300319 0.000217789
318 9 2 -5.16354 -13.1994 -12.9802 0 1 0 0.0335878 0.0106288 0.00787179
112 9 1 -4.47888 -12.4191 5.45618 0 0 0 -0.0156935 -0.0166406 0.0145317
23 1 1 -4.49808 -9.85193 6.3214 0 0 0 0.00276765 -0.00325393 0.00266684
3 1 1 -10.1539 -13.1618 10.6818 0 0 0 0.00501695 0.00516547 0.00284858
87 9 1 -11.1508 -12.7542 10.7131 0 0 0 -0.024048 0.0111045 0.00487178
359 9 2 -3.51471 -5.53203 12.902 0 1 -1 0.0275244 -0.00318749 -0.00483259
305 10 2 4.1666 -12.1969 11.8884 0 1 -1 -0.00691398 -0.0144274 -0.00497484
308 10 2 1.76234 -13.0275 13.0004 0 1 -1 -0.0169634 0.025588 0.0034864
33 1 1 -0.0734692 -10.0334 4.76128 0 0 0 0.00373909 -0.000164478 0.00318152
31 1 1 -1.16568 -7.7083 4.3124 0 0 0 -0.00473688 -0.00659669 0.00118902
27 1 1 -3.9073 -5.89992 7.97602 0 0 0 -0.00252323 -0.00286663 -0.00245517
122 9 1 -3.99733 -5.01328 8.60062 0 0 0 -0.000781415 0.0137288 -0.00202587
132 10 1 -0.0119746 -10.7946 5.47262 0 0 0 -0.0139379 0.0222094 0.00935222
32 1 1 -0.976212 -8.93071 5.33554 0 0 0 -0.00275735 -0.00342753 0.00499142
115 10 1 -4.14198 -9.49064 5.36918 0 0 0 0.00904693 0.0097232 0.00865077
129 9 1 -1.94369 -9.22322 5.50984 0 0 0 0.00266859 -0.0128748 -0.00262244
351 9 2 3.38854 -5.88266 12.8339 0 1 -1 0.0150915 -0.0116726 0.0200389
302 9 2 2.42891 -10.1356 11.1882 0 1 -1 -0.00951947 -0.00902625 -0.00370524
116 10 1 -3.74585 -10.393 6.83297 0 0 0 0.0235727 -0.0111394 -0.0042595
358 9 2 -1.32994 -6.35673 12.6 0 1 -1 0.0131728 0.000142605 -0.024243
208 1 2 -2.65157 -10.4546 11.2652 0 1 -1 -0.0031035 0.00337065 0.00230449
209 1 2 -2.96817 -9.53489 10.0846 0 1 -1 -0.000536195 -0.000147686 -0.00654205
210 1 2 -1.86745 -9.48712 8.91704 0 1 -1 0.00114584 -0.00688902 -0.00198996
211 1 2 -0.536041 -8.67879 9.26375 0 1 -1 0.000633658 -0.00366432 0.00707662
212 5 2 0.164113 -9.34048 10.2742 0 1 -1 0.00385073 0.00767419 -0.00414964
213 1 2 0.841024 -10.5867 9.84368 0 1 -1 0.00246743 0.000336938 -0.00280649
291 10 2 -3.53933 -10.5862 11.8815 0 1 -1 0.0270167 0.000501921 -0.0181892
292 10 2 -1.80432 -9.9256 11.7414 0 1 -1 -0.00755441 0.00502576 -0.0225968
293 9 2 -3.1303 -8.52518 10.4767 0 1 -1 -0.00379931 0.00331979 -0.0186955
294 9 2 -3.96567 -9.80131 9.68026 0 1 -1 0.00441545 0.00965362 -0.00742698
295 9 2 -1.7723 -10.475 8.38711 0 1 -1 0.0290602 0.0189464 0.00994828
296 9 2 -2.28929 -8.89554 8.1177 0 1 -1 -0.0189803 0.00229287 -0.0169641
297 10 2 -0.782491 -7.67542 9.64361 0 1 -1 0.0248714 -0.0132238 0.00407061
300 10 2 -0.0247231 -11.3435 9.63734 0 1 -1 -0.0272479 -0.00985044 0.0101692
207 5 2 -2.01722 -11.7753 10.8848 0 1 -1 -0.000157389 -0.00151702 -0.00284615
205 3 2 -2.61058 -12.6664 10.0611 0 1 -1 -0.00652675 -0.00057659 0.00221786
206 4 2 -3.57572 -12.451 9.36827 0 1 -1 -0.00240731 0.000257618 0.000519429
204 2 2 -1.94045 12.9961 10.053 0 0 -1 -0.000216568 -0.00762765 0.00173629
214 1 2 1.80506 -11.0432 10.8691 0 1 -1 0.00282527 0.00364095 -0.00442054
301 9 2 1.24124 -11.3272 11.7416 0 1 -1 -0.0039556 0.0223069 -0.00318945
121 9 1 -3.5195 -6.68483 8.61329 0 0 0 0.0103065 0.000156504 0.0209865
316 10 2 -2.59634 -12.4375 -13.231 0 1 0 0.00070103 -0.00545644 0.00630023
298 10 2 0.104607 -8.57024 8.4191 0 1 -1 -0.0118525 0.0109728 -0.0101861
215 1 2 2.69274 -12.1195 10.1825 0 1 -1 0.00237236 0.00926327 -0.00453134
303 9 2 3.22198 -11.5234 9.44318 0 1 -1 -0.0186122 0.00382613 0.00187198
299 10 2 1.31478 -10.3895 8.87127 0 1 -1 -0.00886398 -0.00327985 -0.0140271
28 1 1 -2.85876 -5.58546 6.91792 0 0 0 0.00606393 0.00730425 -0.00407152
130 9 1 -0.682054 -8.54823 6.28307 0 0 0 -0.00878441 0.0220957 0.00162285
30 1 1 -1.66518 -6.47292 5.05764 0 0 0 0.00155195 -0.00201338 -0.00177906
29 5 1 -2.41827 -6.7564 6.27989 0 0 0 -0.00614321 0.00039998 -0.00728644
304 9 2 2.04724 14.0704 9.625 0 0 -1 0.000296112 0.0191136 0.00890522
123 10 1 -3.33657 -4.88919 6.1478 0 0 0 -0.020403 -0.0164567 0.0385811
124 10 1 -1.97569 -5.16641 7.45099 0 0 0 0.0256596 -0.0216516 0.0211316
125 10 1 -2.2438 -5.81945 4.32991 0 0 0 0.0222395 0.0184265 0.00427217
126 10 1 -0.778581 -5.82781 5.37248 0 0 0 -0.0150608 0.014377 0.0124144
348 10 2 5.20776 -7.43251 13.0132 0 1 -1 -0.00468625 0.0126994 -0.0225942
345 10 2 5.51541 -10.1064 13.1836 0 1 -1 0.0180688 0.00164046 -0.0272567
357 9 2 -1.43767 -4.53342 12.4563 0 1 -1 0.0113287 0.00437412 -0.0103266
83 9 1 -7.38193 -13.4638 11.1671 0 0 0 0.0144755 -0.00714952 0.0220611
320 9 2 -5.65292 11.3459 13.1149 0 0 -1 0.0284636 0.0254867 -0.0156905
84 9 1 -7.65299 13.3963 9.46077 0 -1 0 -0.00742552 0.00161387 0.0192617
86 9 1 -10.2699 12.9635 9.93658 0 -1 0 0.00480083 0.0446711 -0.00778799
88 9 1 -9.95727 13.1224 11.568 0 -1 0 -0.0126412 -0.0109683 -0.0191946
279 4 2 -8.98025 10.3459 9.89434 0 0 -1 0.00510443 0.00374272 -0.0024233
278 8 2 -7.79765 10.3857 9.92949 0 0 -1 -0.000801836 0.0072161 0.00627944
391 9 2 -6.18065 11.8095 7.97362 0 0 -1 -0.00109118 -0.0202801 0.0189933
277 7 2 -6.59156 10.2212 9.88908 0 0 -1 0.00115955 -0.00137954 0.000983852
390 9 2 -5.57856 10.6418 6.85702 0 0 -1 -0.00707145 -0.0201809 0.000999781
275 1 2 -5.33715 11.3191 7.60032 0 0 -1 0.00818236 0.00124989 0.00545939
394 10 2 -5.75861 8.79848 8.68613 0 0 -1 0.0037823 0.00999645 0.0134689
392 9 2 -4.71317 12.1595 7.12566 0 0 -1 -0.0098393 0.0107945 0.0119359
388 9 2 -4.54156 12.2152 10.031 0 0 -1 -0.0251887 -0.00360383 -0.00150043
276 1 2 -5.40912 9.57946 9.37635 0 0 -1 -0.000983088 -0.00231555 0.00612328
393 10 2 -4.90872 9.12205 10.1889 0 0 -1 0.00447097 -0.018618 0.000794955
319 9 2 -4.08269 10.9283 -13.4569 0 0 0 -0.0159194 -0.00296918 -0.00139336
218 1 2 2.51627 13.0465 13.0252 0 0 -1 -0.00400326 0.00323483 0.00172075
224 1 2 -4.38272 13.0024 -13.384 0 0 0 -0.00203218 -0.00114906 -0.00341279
317 9 2 -4.43313 13.1883 12.4536 0 0 -1 -0.0412208 -0.0199951 0.00809261
290 11 2 -1.0388 12.9604 10.5647 0 0 -1 0.0199387 0.006653 0.00810483
289 10 2 -2.5202 12.4041 8.23376 0 0 -1 0.0133197 -0.00448349 -0.0254661
216 1 2 3.74019 -12.8846 11.1273 0 1 -1 0.00595283 -0.00210233 0.0124727
203 1 2 -2.46131 11.9518 9.25143 0 0 -1 -0.00494599 0.00206817 0.00304555
217 5 2 3.12704 12.8483 11.7446 0 0 -1 -0.00620268 0.00088341 -0.00291429
220 1 2 0.256989 11.7476 12.9014 0 0 -1 0.000209952 -0.00361449 -0.00374706
222 5 2 -1.99437 12.4842 13.417 0 0 -1 -0.000713809 -0.0031055 0.00514336
273 1 2 -3.83536 11.4933 9.74789 0 0 -1 0.00692991 0.00179847 -0.00304362
274 1 2 -4.47531 10.5991 8.62905 0 0 -1 0.00106694 -0.00651635 -0.0060852
283 9 2 -2.9493 8.17647 10.1748 0 0 -1 -0.0306995 0.00059773 -0.000230616
311 9 2 -0.164654 10.6775 12.9695 0 0 -1 0.00301583 0.0147802 0.0393407
312 9 2 0.28544 12.0856 11.8159 0 0 -1 0.00604448 -0.0247617 -0.0270635
389 9 2 -3.65436 10.8689 10.6093 0 0 -1 -0.00349269 -0.00633356 -0.00830512
199 1 2 -2.15918 8.17153 9.36083 0 0 -1 -0.00683436 -0.000564581 -0.0062037
200 1 2 -2.03644 9.4739 8.40862 0 0 -1 -2.69561e-06 -0.00121839 -0.000446094
202 1 2 -1.49824 10.7304 9.26921 0 0 -1 0.000254114 0.0028673 0.00503852
280 1 2 -3.37773 9.79173 7.75513 0 0 -1 -0.00336801 0.00930977 -0.00397677
281 9 2 -2.44162 7.33196 8.79393 0 0 -1 -0.0147251 0.0123556 -0.00377616
282 9 2 -1.17177 8.06775 9.80545 0 0 -1 0.0347938 0.0106859 0.0111488
287 9 2 -1.32539 10.5298 10.3638 0 0 -1 -0.00106933 0.00221442 -0.00730991
396 9 2 -3.92961 8.90501 7.39116 0 0 -1 0.00494284 -0.00335657 -0.00882691
201 1 2 -0.955991 9.19992 7.23587 0 0 -1 -0.00820356 -0.00441357 -0.00498182
284 9 2 0.0442948 8.88028 7.61465 0 0 -1 -0.0262592 -0.0221353 -0.0145725
285 9 2 -0.862259 10.0029 6.54404 0 0 -1 0.0172624 0.00859851 0.00736006
286 9 2 -1.25616 8.37727 6.58623 0 0 -1 -0.0161074 -0.0252477 0.0265976
288 9 2 -0.534779 10.951 8.8893 0 0 -1 -0.00171829 -0.0285069 -0.00411967
395 9 2 -3.1209 10.2641 6.77314 0 0 -1 -0.000944641 -0.0284761 -0.0254518
306 10 2 4.49948 -13.25 10.4176 0 1 -1 -0.0249935 0.00519248 -0.000885489
ITEM: TIMESTEP
2000
ITEM: NUMBER OF ATOMS
396
ITEM: BOX BOUNDS pp pp pp
-1.3455374323682250e+01 1.3455374323682250e+01
-1.3455374323682250e+01 1.3455374323682250e+01
-1.3455374323682250e+01 1.3455374323682250e+01
ITEM: ATOMS id type mol x y z ix iy iz vx vy vz
68 1 1 -4.77026 -5.77466 -6.62455 0 0 0 0.00168779 0.00278706 0.00474094
67 1 1 -4.58333 -4.75908 -5.46092 0 0 0 -0.00478379 0.00290827 -0.007571
178 10 1 -5.83222 -5.69932 -6.92194 0 0 0 0.00668437 0.00818818 -0.0030112
179 12 1 -5.01993 -7.30536 -5.62262 0 0 0 -0.0181915 0.0163734 0.0161461
148 10 1 -5.22933 -9.96143 -5.53618 0 0 0 0.0128857 -0.0163376 -0.0111157
149 10 1 -7.08294 -8.73006 -5.94474 0 0 0 0.0017154 0.0118459 -0.0217129
45 1 1 -7.33874 -8.91023 -4.86564 0 0 0 -0.000835594 0.00480987 -0.00373122
150 10 1 -7.93523 -9.85879 -4.75966 0 0 0 -0.00557245 -0.0122876 -0.013003
152 9 1 -9.024 -7.5074 -5.03935 0 0 0 -0.00542783 0.00136013 -0.0252219
177 10 1 -4.36097 -5.46591 -7.58495 0 0 0 0.0271799 -0.017587 0.00770379
69 6 1 -4.38854 -7.12162 -6.31737 0 0 0 0.011508 0.00373013 0.0035931
175 10 1 -3.52538 -4.72068 -5.08896 0 0 0 -0.00726915 0.0107781 -0.0195851
254 4 2 -3.51646 -5.52214 -10.2633 0 1 0 -0.000267597 -0.00236864 0.00206479
250 1 2 -2.38802 -5.62498 -13.3086 0 1 0 0.00608983 0.00430488 0.00114877
253 3 2 -2.37994 -5.15526 -10.2997 0 1 0 0.00281109 0.00138073 -0.00104345
360 9 2 -3.02105 -6.42211 -12.8861 0 1 0 0.00209206 0.0256189 0.00145052
246 1 2 2.51552 -6.31309 -12.3722 0 1 0 0.00313482 0.00159395 -0.00603457
247 5 2 1.32477 -6.78043 -12.988 0 1 0 0.0110672 -0.0107875 -0.00477017
248 1 2 0.200735 -5.99727 -12.569 0 1 0 -0.00403026 -0.00252092 -0.00953172
255 2 2 -1.44172 -5.58421 -9.32204 0 1 0 0.0020344 -0.00109762 -0.00235205
256 1 2 -1.74241 -6.6056 -8.31379 0 1 0 0.00559051 0.000752094 0.00493936
257 1 2 -1.12498 -7.98277 -8.64171 0 1 0 -0.000157988 -0.00138271 0.0080277
259 1 2 0.397589 -7.81628 -8.80943 0 1 0 -0.00528664 0.000938648 -0.00808746
260 1 2 1.21022 -9.0702 -9.24189 0 1 0 -0.00465992 0.0058252 -0.000571131
261 2 2 2.68385 -8.76445 -9.25663 0 1 0 0.00100151 0.00139647 0.00812241
268 1 2 0.666613 -9.46562 -10.6801 0 1 0 -0.00123812 -0.00852309 -0.0014413
269 1 2 -0.897863 -9.77999 -10.6811 0 1 0 -0.00486811 0.000226802 0.00116637
271 1 2 -1.46158 -10.064 -12.1296 0 1 0 -0.00306242 -0.00212008 -0.00599433
272 1 2 -1.69983 -8.60793 -9.96436 0 1 0 -0.00120209 -0.00654808 -0.00224255
353 10 2 2.49016 -6.51538 -11.2685 0 1 0 -0.0073186 0.0104392 0.00303067
355 10 2 -0.209288 -6.39592 -11.5688 0 1 0 -0.000637406 -0.0189658 -0.00755345
363 11 2 -0.432903 -5.26403 -9.31733 0 1 0 0.029762 0.00450623 0.00594575
364 10 2 -2.82219 -6.80754 -8.34574 0 1 0 0.00198878 -0.0229355 -0.0051299
365 10 2 -1.4694 -6.33273 -7.26524 0 1 0 -0.0192229 -0.0110777 0.0102695
369 9 2 0.7476 -7.44316 -7.85478 0 1 0 0.0116096 0.00887567 0.00379356
370 9 2 0.652016 -7.09336 -9.57568 0 1 0 0.0149818 0.0123656 0.0128061
372 11 2 3.13825 -8.64585 -10.1605 0 1 0 0.0243714 0.0184978 0.0119681
378 9 2 1.22796 -10.3712 -10.7766 0 1 0 -0.0134164 -0.020337 -0.0120283
379 9 2 0.950285 -8.70261 -11.423 0 1 0 0.0288755 0.0181184 0.0200049
385 9 2 -1.28308 -9.20406 -12.772 0 1 0 -0.03682 -0.0364051 -0.0296855
386 9 2 -1.72485 -7.82063 -10.7695 0 1 0 -0.00281908 -0.0200376 0.00287288
387 9 2 -2.70637 -8.9568 -9.75699 0 1 0 -0.00678685 0.012843 0.00553376
352 9 2 3.78223 -7.9807 -12.3409 0 1 0 0.0127729 0.00432947 0.0270966
258 1 2 -1.43867 -8.94587 -7.48232 0 1 0 -0.00258823 -0.00035495 0.00680233
262 3 2 3.41807 -8.8364 -8.09714 0 1 0 0.00555196 -0.00464421 0.00942751
366 9 2 -1.15119 -8.48479 -6.53505 0 1 0 0.0170193 -0.00750237 -0.0020764
368 9 2 -2.48733 -9.04224 -7.45209 0 1 0 0.016938 -0.0117354 0.0363199
263 4 2 2.90797 -8.95902 -7.00208 0 1 0 -0.00109805 -0.00189615 -0.00224735
371 10 2 1.08713 -9.87774 -8.49274 0 1 0 -0.0114996 0.00278341 0.00955488
367 9 2 -0.93746 -9.83937 -7.62042 0 1 0 0.0178215 0.0324753 -0.00427323
270 1 2 -1.18421 -11.2067 -10.0387 0 1 0 0.00283724 -0.0013395 -0.000687419
384 9 2 -2.57185 -10.2799 -11.9995 0 1 0 -0.0276692 0.0125742 0.000306328
382 9 2 -0.832749 -11.9562 -10.7726 0 1 0 -0.0204397 -0.0217075 -0.00309035
380 9 2 -2.25547 -11.2558 -9.84051 0 1 0 -0.00727827 0.0250642 0.0133474
381 9 2 -0.556951 -11.3242 -9.12675 0 1 0 -0.00690027 0.0146236 0.024133
334 9 2 1.96164 -11.9744 -8.87226 0 1 0 0.00848328 -0.00597706 -0.00287925
315 10 2 -3.36025 -13.3939 -12.2107 0 1 0 -0.0144871 0.0128988 -0.0155587
383 9 2 -1.08931 -10.9488 -12.6493 0 1 0 0.00846741 -0.000503783 -0.0188889
329 10 2 -1.94752 -13.1101 -7.44957 0 1 0 -0.00346448 0.00255505 -0.00417583
331 10 2 0.461927 -12.0176 -6.98619 0 1 0 0.0013634 0.00459757 -0.00393152
245 1 2 3.72434 -7.08275 -12.9292 0 1 0 0.00790331 -0.00173663 0.00189899
354 10 2 2.65943 -5.25333 -12.5544 0 1 0 -0.0218889 -0.0196849 -0.0203545
356 10 2 0.391898 -4.87828 -12.304 0 1 0 0.0223006 -0.00260608 -0.00991456
237 5 2 4.20522 -12.6102 -10.0449 0 1 0 0.00213023 0.00105734 0.00204923
233 1 2 0.839939 -12.9994 -7.33626 0 1 0 0.000137451 -0.00123376 0.000336984
234 1 2 2.18399 -12.7522 -8.07633 0 1 0 -0.00129605 0.00425345 -0.00699784
333 9 2 2.80468 -12.3297 -7.32146 0 1 0 -0.0348598 -0.0311329 0.0183796
307 10 2 2.92197 -12.9909 -12.4537 0 1 0 -0.014648 -0.00114342 0.0353597
308 10 2 1.32457 -12.5754 -13.1868 0 1 0 0.00362102 0.0315973 -4.4451e-05
218 1 2 2.12367 -13.3156 -13.1518 0 1 0 0.000724108 -0.000414139 -0.00415618
349 9 2 5.26864 -6.1093 -11.7158 0 1 0 0.00401631 -0.0020935 -0.00299798
342 9 2 4.94622 -10.2762 -11.0798 0 1 0 0.0116855 -0.0103263 0.0161593
341 9 2 4.79956 -11.3646 -12.41 0 1 0 0.0118097 0.00582242 -0.016133
264 5 2 4.62765 -8.53244 -8.42697 0 1 0 -0.00146127 7.50718e-05 0.00599609
244 1 2 5.05349 -6.31609 -12.7417 0 1 0 0.00977707 -0.0019096 -0.000596447
350 9 2 5.06171 -5.3214 -13.1015 0 1 0 0.00789504 -0.0158535 0.0333406
239 1 2 5.38575 -11.101 -11.5558 0 1 0 0.00891796 -0.00223321 0.0074803
238 1 2 5.50228 -12.3719 -10.5792 0 1 0 0.00156555 0.00470998 0.00124599
242 5 2 6.47695 -8.21603 -12.3958 0 1 0 0.00152466 0.000941997 0.00213911
374 10 2 5.46947 -7.394 -6.78696 0 1 0 -0.000293032 -0.00261727 0.00518593
340 10 2 6.20748 -12.0971 -9.77005 0 1 0 -0.0136216 0.00469018 0.00502701
339 10 2 5.90562 -13.2471 -11.0922 0 1 0 0.0277449 0.00928984 0.0178791
265 1 2 5.60582 -8.30918 -7.39961 0 1 0 -0.00362537 -0.000170877 -0.00792964
373 10 2 5.81125 -9.24623 -6.82006 0 1 0 0.000326475 0.00518739 0.00891673
266 1 2 6.90249 -8.06997 -8.20471 0 1 0 0.0116609 -0.00277005 0.0036184
267 6 2 7.20018 -9.14599 -9.06386 0 1 0 -0.00380931 -0.00511891 0.00287031
347 10 2 7.13514 -6.42986 -13.3461 0 1 0 0.0324941 0.0159484 0.0263797
376 10 2 6.73172 -7.17144 -8.76892 0 1 0 -0.0277562 -0.0264986 -0.0162804
377 12 2 6.52761 -9.23405 -9.76859 0 1 0 -0.0116264 -0.0198251 0.00170478
375 10 2 7.7203 -7.85492 -7.56116 0 1 0 -0.00719544 -0.0105343 -0.0221166
241 1 2 6.75999 -9.50486 -13.1318 0 1 0 -0.00362674 -0.00319087 -0.00236732
240 1 2 6.7797 -10.6843 -12.2132 0 1 0 0.00109653 0.00615168 -0.0144131
343 9 2 7.5357 -10.6043 -11.3882 0 1 0 0.0217455 -0.00172685 -0.00321107
344 9 2 7.11004 -11.4659 -12.8637 0 1 0 -0.0111234 0.0280759 0.00438272
243 1 2 6.2371 -7.07627 -13.2875 0 1 0 0.00108064 0.00244932 0.00106376
176 10 1 -4.91023 -3.77546 -5.87319 0 0 0 -0.00265977 0.0165123 -0.0121566
252 5 2 -1.77297 -4.45203 -11.189 0 1 0 0.000528023 0.00332966 -0.0052923
362 10 2 -3.34431 -3.89175 -12.494 0 1 0 0.0100961 0.00926627 0.0208771
251 1 2 -2.30296 -4.26471 -12.4925 0 1 0 0.000748843 0.00322035 -0.00459593
361 10 2 -1.65442 -3.54951 -13.0235 0 1 0 -0.00838576 -0.00719526 0.0226346
323 10 2 -5.34689 11.0214 -9.29799 0 0 0 0.0462669 -0.00622378 -0.0308789
321 10 2 -6.08364 11.0048 -11.7067 0 0 0 0.020782 -0.0215939 -0.00654656
226 1 2 -5.08512 10.7705 -11.8248 0 0 0 0.00889659 -0.000458551 0.00354553
322 10 2 -4.96414 9.72371 -11.5719 0 0 0 0.0400789 -0.0170844 -0.0254457
225 1 2 -4.54701 10.9992 -13.3218 0 0 0 0.0048579 0.00268239 0.000792834
318 9 2 -5.51375 12.9679 -13.391 0 0 0 -0.00895703 -0.0131331 0.00592477
325 9 2 -4.11755 13.1527 -8.96345 0 0 0 0.000633831 0.0146042 -0.0268957
223 1 2 -3.3527 13.3326 -13.3528 0 0 0 -0.00583399 -0.00074766 0.0028027
228 1 2 -4.33882 11.1683 -9.60511 0 0 0 0.000974294 0.00347064 6.73413e-06
324 10 2 -3.76556 10.2311 -9.51024 0 0 0 0.0146145 -3.37804e-05 -0.0163995
227 5 2 -4.27839 11.5749 -10.9891 0 0 0 -0.00175145 0.000793849 0.00156758
326 9 2 -4.00572 12.0331 -7.55318 0 0 0 0.00644907 0.00357635 -0.000319453
229 1 2 -3.69902 12.176 -8.62914 0 0 0 0.00295327 -0.00754184 -0.00171317
328 9 2 -1.83376 11.0421 -8.66184 0 0 0 -0.00956141 -0.0157497 0.0152582
230 1 2 -2.1533 12.0975 -8.71605 0 0 0 -0.00684362 -0.00090869 0.00348532
231 1 2 -1.44062 12.8356 -7.59713 0 0 0 -0.00279147 -0.00137953 -0.00109181
232 5 2 -0.135351 13.1722 -8.0644 0 0 0 0.00340907 0.000698018 -0.00294271
235 1 2 2.84858 12.87 -8.62015 0 0 0 0.000325851 0.0044931 0.00163294
236 1 2 4.25659 13.2521 -9.10823 0 0 0 0.00486104 -0.00843662 -0.00162202
327 9 2 -1.78859 12.4293 -9.66286 0 0 0 -0.00850818 0.029359 -0.0241538
330 10 2 -1.45381 12.2785 -6.60222 0 0 0 0.00623956 -0.0322172 0.0282578
332 10 2 1.20524 13.3343 -6.46527 0 0 0 -0.00313987 0.0149972 0.00607693
335 9 2 2.18401 12.3605 -9.31925 0 0 0 0.00634604 0.00587124 -0.0253036
336 9 2 2.88207 12.2219 -7.72425 0 0 0 0.00134679 -0.0166065 0.021277
314 10 2 -1.05406 13.0955 -12.0836 0 0 0 -0.00826256 -0.00946467 -0.00761275
310 9 2 1.17837 12.0743 -11.6888 0 0 0 0.00580579 0.00978905 0.0004483
221 1 2 -0.941213 13.0437 -13.147 0 0 0 -0.000944548 0.00143728 -0.00709839
219 1 2 1.46491 12.1947 -12.737 0 0 0 -0.00603703 0.000901744 -0.00135179
309 9 2 2.13814 11.3446 -13.0262 0 0 0 0.0220179 0.018446 0.00405542
319 9 2 -3.53936 10.6207 -13.4095 0 0 0 -0.00176722 0.0225285 -0.0116342
311 9 2 -0.246359 10.9192 -13.1877 0 0 0 0.0176581 -0.00928433 0.00420758
337 10 2 4.96282 13.4449 -8.29342 0 0 0 0.013621 0.0103585 0.0439482
338 10 2 4.7055 12.4149 -9.63317 0 0 0 0.0229006 -0.0267094 -0.00664308
43 1 1 -5.35826 -10.0903 -4.44141 0 0 0 0.00375765 0.000208805 -0.00299834
44 5 1 -6.17413 -8.99388 -4.08014 0 0 0 0.00547198 0.00536371 0.000119321
63 2 1 -6.05349 -4.86275 -2.25003 0 0 0 -0.00242472 0.000113185 -0.000918015
66 5 1 -5.39491 -5.13378 -4.36739 0 0 0 -0.000186425 0.00315728 -0.000599919
70 1 1 -6.49309 -5.43257 0.0600314 0 0 0 0.00271346 0.00266423 0.00660973
104 9 1 -8.96817 -9.11228 0.657568 0 0 0 -0.0116939 -0.00987814 0.00914669
107 10 1 -6.20429 -9.66416 1.18379 0 0 0 -0.000550182 0.00954996 -0.00720751
147 10 1 -5.75743 -11.0912 -4.21228 0 0 0 0.0266997 -4.69527e-05 -0.00154309
154 9 1 -7.94644 -7.99027 -2.19821 0 0 0 -0.0263954 0.0101335 0.0056663
174 11 1 -6.35 -5.80966 -2.43616 0 0 0 -0.00964194 0.0188597 -0.00729978
180 9 1 -5.66183 -6.18026 -0.113839 0 0 0 0.0390534 -0.00322547 0.000105289
181 9 1 -7.36234 -5.98815 -0.270525 0 0 0 -0.00892292 0.0154746 0.0245196
47 1 1 -8.8 -7.83972 -2.89628 0 0 0 -0.00185167 -0.000444271 0.00116693
71 1 1 -6.65112 -5.06946 1.55232 0 0 0 -0.00578425 -0.00313607 -0.00883915
185 9 1 -6.62315 -7.08955 2.27679 0 0 0 -0.000877996 -0.00433261 0.00534623
18 1 1 -6.45213 -10.7586 1.19548 0 0 0 0.0051443 0.00388895 -0.000389762
105 9 1 -8.16735 -11.1144 -0.149464 0 0 0 -0.0347509 -0.0343275 -0.0240475
108 10 1 -5.90852 -11.2671 0.324319 0 0 0 -0.0177047 0.00151624 0.00451705
153 9 1 -9.54051 -8.67956 -2.85181 0 0 0 -0.00132324 0.0164866 0.018334
73 1 1 -7.23908 -6.24096 2.39628 0 0 0 -0.00632345 -0.00012869 -0.00340778
101 10 1 -10.7698 -11.1322 0.762748 0 0 0 0.00463972 -0.00638564 -0.00941023
16 1 1 -8.9976 -9.88297 1.38239 0 0 0 0.000562331 -0.00401907 8.64321e-05
17 1 1 -7.99232 -11.0525 0.912478 0 0 0 -0.000898072 -0.00383556 -0.000655169
20 1 1 -6.01028 -10.602 3.59836 0 0 0 -0.00787826 -0.00433869 0.00327389
151 9 1 -7.57201 -6.81389 -4.37702 0 0 0 0.0142828 0.00336575 0.00587803
46 1 1 -8.19397 -7.69581 -4.37091 0 0 0 0.0014591 0.00363081 0.000940281
186 9 1 -7.18326 -5.96467 3.43119 0 0 0 -0.0114689 0.00727562 -0.0113456
187 9 1 -8.24965 -6.46873 1.99906 0 0 0 -0.0244705 -0.0266592 -0.00444679
14 5 1 -11.3211 -9.37013 1.70387 0 0 0 0.000735842 -0.00160415 0.00239894
15 1 1 -10.4498 -10.438 1.60124 0 0 0 0.00088062 0.0052928 0.000918413
100 10 1 -13.0714 -10.3615 2.0364 0 0 0 0.0146544 -0.00225152 0.00360241
99 10 1 -13.1716 -8.625 2.10868 0 0 0 -0.0108159 -0.0102311 0.00612282
13 1 1 -12.6023 -9.47068 2.40381 0 0 0 0.002702 -0.000321643 0.000228635
19 5 1 -6.0887 -11.4377 2.36754 0 0 0 0.00797076 0.0020718 0.000947016
106 9 1 -8.40587 -12.0214 1.23579 0 0 0 -0.00983045 0.0103007 -0.000610659
102 10 1 -10.4754 -10.9341 2.54941 0 0 0 -0.00349779 0.00614435 0.0090946
103 9 1 -8.64439 -9.49913 2.35862 0 0 0 0.00394523 0.0186227 -0.000192299
97 9 1 -11.589 -10.1937 4.24629 0 0 0 0.000989923 -0.00681042 0.00610999
12 1 1 -12.3241 -9.42963 3.94551 0 0 0 7.02926e-05 0.00199329 -0.00843338
98 9 1 -13.2074 -9.59319 4.47131 0 0 0 -0.0325247 -0.00533006 -0.00502332
155 10 1 -8.95922 -5.63138 -2.39073 0 0 0 -0.0110962 0.0146508 0.0072179
48 1 1 -9.61628 -6.5444 -2.52987 0 0 0 0.00575081 0.0026586 6.91086e-05
49 5 1 -10.2582 -6.83145 -1.28042 0 0 0 0.000346996 -0.00224357 -0.00506804
94 10 1 -9.85969 -8.17693 3.67759 0 0 0 -0.0121371 0.0232104 -0.0249426
95 9 1 -12.1367 -7.20606 3.95168 0 0 0 0.0168814 0.00170303 -0.0041542
109 10 1 -5.09482 -9.9749 3.70488 0 0 0 0.00179783 -0.0152129 -0.00401913
156 10 1 -10.3535 -6.341 -3.32728 0 0 0 0.0156762 0.00214212 -0.00270768
50 1 1 -10.9378 -5.67184 -0.782682 0 0 0 0.00745801 0.00103656 -0.000363165
157 10 1 -10.2183 -5.0066 -0.38319 0 0 0 0.0206647 0.0179002 0.0134735
51 1 1 -11.9924 -6.13187 0.272529 0 0 0 0.000300617 -0.00142897 -0.00688683
159 9 1 -12.9797 -6.12947 -0.178984 0 0 0 0.00617035 -0.0202549 0.0129702
160 9 1 -11.7103 -7.06368 0.762319 0 0 0 -0.0106576 0.0189505 0.0154096
184 9 1 -4.60166 -5.8443 2.104 0 0 0 -0.00908866 0.000569093 0.00740321
72 1 1 -5.20262 -4.93663 2.18756 0 0 0 0.000767929 0.00113768 -0.00389885
182 9 1 -5.22139 -4.65114 3.23779 0 0 0 -0.00635868 0.0119168 -0.00346893
110 10 1 -6.90937 -9.91112 3.62449 0 0 0 -0.0241652 0.0104213 -0.0139623
158 10 1 -11.4829 -5.26003 -1.68283 0 0 0 0.0325422 -0.0311578 -0.00958568
52 1 1 -12.0729 -5.14838 1.42799 0 0 0 -0.00251431 0.00251521 0.00595313
162 9 1 -11.0271 -5.05079 1.86789 0 0 0 -0.00577303 0.0258577 0.00734006
161 9 1 -12.7023 -5.68446 2.18763 0 0 0 -0.0164798 0.016614 -0.0128067
145 9 1 -3.60166 -8.88272 -4.2379 0 0 0 -0.0443421 -0.0196941 0.0109328
41 1 1 -3.75068 -10.0862 -2.30193 0 0 0 0.0027045 0.00271206 0.000197039
42 1 1 -3.9725 -9.8787 -3.91491 0 0 0 0.00137473 -0.00114061 -0.004383
143 9 1 -4.17483 -11.1333 -2.11276 0 0 0 -0.01112 -0.0231938 -0.0107259
144 9 1 -4.36718 -9.43547 -1.68649 0 0 0 -0.0129417 -0.0122127 -0.0241886
141 10 1 -1.71871 -10.7688 -2.65699 0 0 0 0.00550048 0.0117666 0.0211396
146 9 1 -3.33825 -10.5462 -4.4641 0 0 0 0.00991546 -0.00100484 -0.0101088
39 5 1 -1.94346 -10.4279 -0.620245 0 0 0 -0.00527051 0.00124852 0.000534056
40 1 1 -2.23258 -10.0707 -1.98733 0 0 0 -0.00290972 -0.000560152 0.00346042
142 10 1 -1.76409 -9.07113 -2.16006 0 0 0 -0.00243081 -0.00670817 -0.00107807
38 1 1 -2.01492 -11.7711 -0.17908 0 0 0 -0.000890321 -0.00250558 0.00417975
139 10 1 -1.61378 -12.4385 -0.908882 0 0 0 0.00334457 0.0190399 0.0336437
140 10 1 -3.14097 -11.9647 -0.20897 0 0 0 0.022448 -0.00115442 0.0217538
37 1 1 -1.54135 -11.9263 1.29783 0 0 0 0.00235204 0.000414705 -0.0091548
136 9 1 0.216921 -10.8096 1.15923 0 0 0 -0.00613618 -0.0278569 -0.0106748
137 9 1 -2.11143 -11.1994 1.86919 0 0 0 -0.0293203 0.0215836 -0.0145808
36 1 1 -0.0169836 -11.7928 1.54419 0 0 0 -0.00522544 6.30321e-05 0.00503575
135 9 1 0.605306 -12.4722 0.974459 0 0 0 0.00650152 0.014887 -0.000608558
34 5 1 -0.360954 -10.6099 3.6499 0 0 0 0.00428535 0.00737698 0.0062345
35 1 1 0.364312 -11.7456 3.02698 0 0 0 -0.000795029 -0.00367457 -0.00284546
133 10 1 1.4041 -11.6151 3.20171 0 0 0 -0.00708028 -0.0029181 -0.00885469
134 10 1 0.0608186 -12.6891 3.3884 0 0 0 0.00363325 0.0249216 0.0154362
138 9 1 -1.81459 -12.9332 1.65898 0 0 0 -0.0228339 -0.00119027 -0.0164552
127 9 1 -1.69776 -8.26669 3.36044 0 0 0 -0.00195236 -0.0538803 0.0144687
128 9 1 -0.06801 -7.65739 3.79341 0 0 0 0.00546076 -0.0100804 0.0195255
31 1 1 -1.06897 -7.8295 4.21963 0 0 0 -0.000886362 -0.00147647 7.19135e-06
125 10 1 -2.27722 -6.19076 3.65659 0 0 0 -0.0103491 0.00475053 0.0163531
62 1 1 -6.17931 -4.29406 -0.919981 0 0 0 0.0014385 0.00496355 -0.000434987
64 3 1 -5.48226 -4.252 -3.31346 0 0 0 -0.00985818 0.00708503 0.00850259
65 4 1 -4.86558 -3.20738 -3.30327 0 0 0 0.00306392 -0.00173707 -0.0028377
173 10 1 -5.19427 -3.90707 -0.646485 0 0 0 -0.0123174 -0.0130752 0.000841324
183 9 1 -4.77068 -4.10266 1.64008 0 0 0 -0.0198014 0.00288278 -0.0131571
74 1 1 -7.5341 -3.72693 1.66742 0 0 0 0.00591546 -0.00148621 0.00148339
172 9 1 -8.22389 -3.72169 -1.04518 0 0 0 -0.010414 -0.00230937 0.00201688
188 9 1 -8.59839 -4.09921 1.57565 0 0 0 0.0181206 0.000915175 0.0201385
61 1 1 -7.24371 -3.22801 -0.806069 0 0 0 -0.00292971 0.000590521 -0.00193557
189 9 1 -7.46753 -3.37015 2.65512 0 0 0 0.00279348 -0.015158 -0.0367751
171 9 1 -7.10086 -2.3966 -1.51529 0 0 0 0.00465882 -0.00166396 0.00566605
59 1 1 -7.31049 -2.60149 0.647274 0 0 0 0.00426278 -0.0050984 0.00214932
53 1 1 -12.8265 -3.78054 1.21111 0 0 0 -0.00769108 -0.00708676 -0.0056828
54 5 1 -11.8527 -2.94579 0.456243 0 0 0 0.00231932 -0.00529461 0.00235216
55 3 1 -10.8825 -2.41959 1.17229 0 0 0 -0.00579766 -0.00826273 0.00232431
56 4 1 -10.8667 -2.15499 2.35319 0 0 0 -0.00497083 -0.00115553 -0.00700722
57 2 1 -9.85695 -2.10405 0.246979 0 0 0 -0.000649957 0.00189546 0.0049377
165 11 1 -9.96127 -2.20905 -0.776042 0 0 0 -0.0243198 0.00420717 0.000453861
164 10 1 -13.0719 -3.28711 2.16169 0 0 0 -0.0252342 0.0181261 -0.0165895
58 1 1 -8.5036 -1.58277 0.57915 0 0 0 -0.00914708 -0.00415516 -0.00268636
166 10 1 -8.56271 -1.08298 1.53557 0 0 0 -0.00489725 -0.00216754 -0.00357113
167 10 1 -8.2374 -0.850458 -0.167729 0 0 0 -0.0274522 -0.0247124 0.0278604
169 9 1 -5.19492 -2.22957 0.775014 0 0 0 -0.0417433 0.00164896 -0.00847158
60 1 1 -6.10564 -1.71198 1.06197 0 0 0 -0.00810278 0.00224684 0.001343
170 9 1 -6.1179 -1.40862 2.13034 0 0 0 0.00941914 0.0166261 0.00313592
168 9 1 -6.09629 -0.824551 0.472665 0 0 0 -0.0363932 0.00613312 -0.0181922
163 10 1 13.1682 -4.06921 0.645465 -1 0 0 -0.0385502 -0.00845453 0.0117507
11 1 1 -11.87 -8.0657 4.52232 0 0 0 -0.00490201 -0.00141612 -0.00995394
117 10 1 -5.88017 -8.01936 5.34154 0 0 0 -0.0116797 0.0134813 -0.00391863
1 1 1 -7.39068 -12.6467 10.838 0 0 0 -0.0010252 -0.00249067 -0.000644582
2 1 1 -8.78874 -11.9494 10.8874 0 0 0 -0.00223339 0.000470803 0.00336151
4 1 1 -9.44577 -11.5482 9.4059 0 0 0 0.00120362 -0.00223068 6.16596e-05
5 1 1 -9.36099 -10.0703 9.03963 0 0 0 0.0009446 -0.00532212 0.00351671
6 2 1 -9.33425 -9.78897 7.5711 0 0 0 0.00242974 0.00715146 0.00208604
75 1 1 -8.04477 -9.44142 9.64459 0 0 0 0.00511071 0.00300174 0.00599595
76 1 1 -8.09017 -9.40413 11.2552 0 0 0 0.00119901 -0.000529839 0.00374456
82 1 1 -8.77486 -10.6836 11.8151 0 0 0 0.00222736 0.00113292 0.00551954
89 9 1 -9.00025 -12.0962 8.56566 0 0 0 -0.00485309 -0.0286698 0.00831283
90 9 1 -10.4551 -11.9071 9.37494 0 0 0 -0.00268445 -0.0244326 -0.00367888
91 10 1 -10.2905 -9.57518 9.40679 0 0 0 -0.0216089 0.0123973 0.00792764
92 11 1 -8.66317 -10.2809 7.02091 0 0 0 -0.0146719 0.0115911 -0.012996
197 9 1 -9.87498 -10.4509 11.8028 0 0 0 0.0197529 0.0145121 -0.0137335
198 9 1 -8.40753 -10.9296 12.7846 0 0 0 -0.000574755 0.00404109 0.0238891
77 1 1 -8.99073 -8.17032 11.7195 0 0 0 0.000473304 -0.00458192 0.00177976
114 9 1 -7.14271 -10.5706 6.4195 0 0 0 -0.038628 -0.00871965 0.0248196
190 9 1 -7.65341 -8.47615 9.17035 0 0 0 -0.00890797 0.0310329 0.000858386
194 9 1 -9.98567 -8.3037 11.2736 0 0 0 -0.00609064 -0.0265568 0.00617052
7 3 1 -10.0363 -8.80319 6.94092 0 0 0 0.000468739 -0.000419666 9.52408e-05
8 4 1 -10.8523 -8.13262 7.52684 0 0 0 -0.00357484 0.00552805 -0.00194704
9 5 1 -9.80252 -8.82828 5.60147 0 0 0 -0.000400458 -0.0115325 0.00436747
192 9 1 -9.13008 -8.20061 12.8473 0 0 0 -0.00192557 0.0277619 0.00177838
193 9 1 -8.56603 -7.1408 11.4694 0 0 0 -0.0307906 -0.0131994 -0.00717013
25 1 1 -6.34321 -7.9396 6.33747 0 0 0 -0.00377626 -0.00382303 -0.00488207
118 10 1 -7.35733 -8.13491 6.24018 0 0 0 -0.00491848 -0.00900096 0.00369975
10 1 1 -10.2919 -7.93273 4.61805 0 0 0 -0.00460859 0.00167814 -0.00148938
96 9 1 -12.3223 -7.89155 5.47649 0 0 0 0.00606428 -0.00218607 0.00297535
85 9 1 -6.71922 -12.0491 10.1145 0 0 0 0.0331451 -0.00474994 -0.00108523
191 9 1 -7.20428 -10.1386 9.25131 0 0 0 0.00556896 0.0210426 -0.00847145
26 1 1 -6.05289 -6.45136 6.83416 0 0 0 -0.00337401 0.00155266 -0.00595873
120 9 1 -6.56139 -5.75802 6.12326 0 0 0 -0.00262672 0.0304746 -0.0233378
119 9 1 -6.62204 -6.2058 7.74785 0 0 0 0.0200499 0.00337569 0.0157322
93 10 1 -9.94809 -6.92357 4.85308 0 0 0 -0.00480651 0.0233495 0.00854369
78 1 1 -6.66412 -9.19836 11.8731 0 0 0 0.00598234 0.00641463 0.00836197
195 10 1 -5.95747 -9.85577 11.4394 0 0 0 -0.0120402 -0.00476249 -0.000229661
196 10 1 -6.62319 -9.39516 13.0072 0 0 0 -0.019761 0.00042006 0.00563183
22 1 1 -6.13823 -11.0038 6.24343 0 0 0 -0.00226743 -0.00280879 -0.00373639
79 7 1 -6.08349 -7.87634 11.6772 0 0 0 0.00789995 0.00250485 -0.00722397
111 9 1 -6.96762 -12.1759 4.57245 0 0 0 -0.0177648 -0.0169213 0.012422
21 1 1 -6.07901 -11.5769 4.75815 0 0 0 -0.0075465 -0.00978266 -0.00280952
113 9 1 -6.00912 -11.9079 6.89024 0 0 0 0.0345845 0.008734 0.00914785
80 8 1 -5.30304 -7.15288 11.2053 0 0 0 -0.00214887 -0.00415763 0.00385393
24 5 1 -5.67421 -8.84704 7.23367 0 0 0 -0.00628884 5.87229e-05 0.000566559
112 9 1 -5.19212 -12.2012 4.71801 0 0 0 -0.0231523 0.0239285 -0.0222282
23 1 1 -5.04645 -10.0014 6.69452 0 0 0 -0.00190599 0.000262321 -0.0059718
3 1 1 -9.71218 -12.9528 11.4146 0 0 0 0.00356767 0.00851281 -0.00242664
87 9 1 -10.7032 -12.5546 11.4037 0 0 0 0.0317756 0.00723195 0.00639959
27 1 1 -4.51586 -6.08413 6.97474 0 0 0 -0.00740646 0.00630332 -0.00152571
116 10 1 -4.48643 -10.4412 7.53359 0 0 0 0.0298915 -0.000777614 0.000184422
83 9 1 -6.81369 -12.652 11.7066 0 0 0 0.0124301 0.00107673 0.0162539
88 9 1 -9.38263 -13.19 12.4239 0 0 0 0.0108425 0.00912075 -0.00294849
249 1 2 -0.95665 -6.11975 13.2272 0 1 -1 0.0018404 -0.000331861 0.00755446
313 10 2 -0.740465 -12.8601 13.3724 0 1 -1 -0.0254714 0.000173372 0.0063836
131 10 1 1.13768 -9.9083 4.93915 0 0 0 -0.0105027 0.0111762 0.0155166
81 4 1 -4.37842 -6.58458 10.7351 0 0 0 0.00255025 -0.0015713 -0.00370008
359 9 2 -2.82936 -5.42704 12.588 0 1 -1 -0.0130672 0.0174555 -0.00704716
305 10 2 3.66085 -11.7 12.7838 0 1 -1 0.0107051 -0.0151542 0.000861801
33 1 1 0.107299 -10.1595 4.90281 0 0 0 0.00022897 -0.00564076 0.00219058
122 9 1 -4.46556 -5.06013 7.42493 0 0 0 -0.0168737 0.0202656 -0.00022631
132 10 1 -0.0596795 -10.8183 5.66108 0 0 0 0.00980322 0.0122893 -0.0122614
32 1 1 -0.80406 -8.88863 5.327 0 0 0 0.00121845 0.00732652 -0.00793371
115 10 1 -4.45788 -9.74713 5.81383 0 0 0 0.0141091 0.0108023 -0.0191656
129 9 1 -1.79804 -9.34751 5.66202 0 0 0 0.014804 0.0082013 0.0302791
351 9 2 3.58945 -7.15517 12.8745 0 1 -1 -0.0171107 -0.0158682 -0.0010253
302 9 2 2.07815 -10.0643 11.9812 0 1 -1 0.0129638 0.0310669 -0.0016229
358 9 2 -1.04421 -7.18026 12.8538 0 1 -1 0.00779265 0.0174759 -0.00268545
208 1 2 -2.14072 -10.5669 11.2902 0 1 -1 -0.00788197 -0.00129025 -0.000556771
209 1 2 -2.58415 -9.50849 10.3088 0 1 -1 0.0035102 0.00020515 0.00520779
210 1 2 -1.60333 -9.28954 9.17264 0 1 -1 -0.00808452 0.000266571 -0.00459126
211 1 2 -0.459323 -8.28344 9.45177 0 1 -1 -0.00379812 0.000519396 -0.000742319
212 5 2 0.460472 -8.82828 10.4522 0 1 -1 -0.00733928 -0.00129746 0.00493192
213 1 2 1.30144 -9.9187 10.0497 0 1 -1 -0.00487837 0.00694987 -0.000959343
291 10 2 -2.98097 -10.6512 11.9867 0 1 -1 -0.00198865 0.0107413 -0.0136875
292 10 2 -1.22222 -10.31 11.7346 0 1 -1 -0.0092039 0.0274445 -0.0173859
293 9 2 -2.65376 -8.54812 10.851 0 1 -1 -0.00952572 -0.00934092 -0.00424554
294 9 2 -3.6124 -9.63934 9.92225 0 1 -1 0.013534 0.00838671 7.4563e-05
295 9 2 -1.28029 -10.29 8.73194 0 1 -1 -0.00280285 -0.0202777 0.00698189
296 9 2 -2.24658 -8.90902 8.42796 0 1 -1 0.0298474 0.00728755 0.0128167
297 10 2 -0.904596 -7.39078 9.9105 0 1 -1 -0.0179914 0.0052503 0.0288398
300 10 2 0.798492 -10.4835 9.26818 0 1 -1 0.0196051 -0.0155621 -0.0154161
207 5 2 -1.9716 -11.9022 10.6698 0 1 -1 0.00034555 0.000503159 -0.00385631
205 3 2 -3.02727 -12.6439 10.1502 0 1 -1 0.00187148 0.00229505 -0.0064936
206 4 2 -4.21636 -12.3571 10.0635 0 1 -1 -0.00373772 0.00230978 -0.00104908
214 1 2 1.78002 -10.7646 11.1679 0 1 -1 0.000563959 0.00747624 0.0011847
301 9 2 0.849903 -11.241 11.5841 0 1 -1 0.0261018 0.00095284 -0.0119045
121 9 1 -3.95118 -6.90564 7.49163 0 0 0 -0.00287022 -0.00164895 -0.0113867
316 10 2 -3.38013 -12.6126 13.0415 0 1 -1 0.00596892 -0.00456459 -0.00167068
298 10 2 0.042944 -8.06102 8.50864 0 1 -1 -0.0160797 0.00038732 0.00765697
215 1 2 2.88492 -11.7358 10.7539 0 1 -1 0.00091867 -0.00142721 0.000222705
303 9 2 3.7033 -11.1316 10.3164 0 1 -1 0.00106456 0.000281419 0.0461856
299 10 2 2.11249 -9.33914 9.57376 0 1 -1 -0.00893964 -0.0316083 0.00514856
28 1 1 -3.81412 -5.87371 5.68552 0 0 0 -0.000979207 -0.00129573 -0.00133904
130 9 1 -0.325333 -8.33036 6.20817 0 0 0 0.0306864 -0.00991534 0.0223031
30 1 1 -1.77048 -6.50298 4.59338 0 0 0 0.000113088 -0.000504521 -0.00300988
29 5 1 -2.61902 -6.69133 5.70273 0 0 0 0.000335926 -0.00294338 -0.00435447
304 9 2 2.49228 -12.4731 10.0553 0 1 -1 -0.0134858 0.00648476 0.0032718
123 10 1 -4.43748 -6.1978 4.79346 0 0 0 -0.0033978 -0.0198766 -0.0133245
124 10 1 -3.52904 -4.83928 5.5292 0 0 0 -0.00139422 -0.0194786 0.0190418
126 10 1 -0.995018 -5.788 4.92204 0 0 0 -0.0061694 -0.0150635 -0.00289086
357 9 2 -0.7177 -5.54321 12.3172 0 1 -1 -0.000742123 -0.0185178 -0.00499837
216 1 2 3.56061 -12.389 11.9608 0 1 -1 0.00278842 -0.00742548 0.00749067
346 10 2 7.72608 -9.40159 13.3355 0 1 -1 0.00250922 -0.011725 -0.00963635
348 10 2 5.97824 -7.33744 12.6037 0 1 -1 -0.0266233 0.0236056 -0.0130863
345 10 2 6.06596 -9.7337 12.9665 0 1 -1 0.0260984 1.55692e-05 -0.0245138
306 10 2 4.48826 -12.7718 11.6074 0 1 -1 -0.00766641 0.0168722 0.0233087
320 9 2 -5.15717 10.4131 12.9632 0 0 -1 -0.0329014 -0.0408738 0.0388744
84 9 1 -7.57747 13.2285 10.3666 0 -1 0 0.00969113 0.0278357 0.0230042
86 9 1 -9.68003 12.9864 10.8078 0 -1 0 -0.0335562 0.00113393 0.00663012
279 4 2 -8.55551 10.1416 11.1574 0 0 -1 0.00573671 -0.00613972 0.00371784
278 8 2 -7.52884 9.81377 10.6675 0 0 -1 0.00381558 -0.00952624 0.00248551
391 9 2 -6.85067 10.764 7.77885 0 0 -1 0.0162995 0.00121922 -0.0230016
277 7 2 -6.41939 9.61575 10.2617 0 0 -1 -0.00316735 0.00111129 0.00580661
390 9 2 -6.09567 9.64475 6.54873 0 0 -1 -0.00144594 0.0313661 0.013932
275 1 2 -5.87179 10.5079 7.26876 0 0 -1 -0.00818043 0.00226478 -0.000427371
394 10 2 -5.90035 8.35327 8.72053 0 0 -1 0.0161446 -0.0192738 -0.012641
392 9 2 -5.74755 11.4128 6.67955 0 0 -1 -0.0198724 0.0206675 -0.0182324
388 9 2 -5.14354 12.033 9.29112 0 0 -1 0.0127029 -0.00115277 -0.00852501
276 1 2 -5.37944 9.08989 9.31167 0 0 -1 -3.63488e-06 -0.000747181 0.00221141
393 10 2 -4.61916 8.56376 9.90373 0 0 -1 -0.0103142 0.0220638 0.00160037
224 1 2 -4.62137 12.4836 13.1485 0 0 -1 0.00703341 0.00716922 0.00145336
317 9 2 -4.66662 12.4118 12.065 0 0 -1 -0.00687786 0.0324492 0.0200476
274 1 2 -4.75003 10.138 8.29802 0 0 -1 -7.79711e-05 0.00234106 0.00806618
204 2 2 -2.56575 13.0255 9.87375 0 0 -1 0.00573223 -0.00810663 -0.00136816
290 11 2 -1.64797 12.8127 10.14 0 0 -1 -0.0149279 -0.0205679 -0.0186865
289 10 2 -3.254 12.6168 7.95003 0 0 -1 0.00315403 -0.00349177 -0.0418099
203 1 2 -3.06782 12.1046 8.86177 0 0 -1 0.00425222 -0.00353902 0.0048051
217 5 2 2.76287 13.4359 12.4287 0 0 -1 0.00586592 0.00125779 0.011347
220 1 2 0.150548 11.9521 13.4187 0 0 -1 -0.000178683 -0.00471919 0.00538105
222 5 2 -2.11131 12.5372 13.2133 0 0 -1 -0.00615056 0.00356948 0.00168305
273 1 2 -4.311 11.345 9.2288 0 0 -1 0.00752456 -0.00212939 -0.00753317
283 9 2 -2.50352 9.01577 10.304 0 0 -1 -0.0122032 0.0291322 0.0276275
312 9 2 0.377114 11.9476 12.3187 0 0 -1 -0.0211507 0.00548403 0.024148
389 9 2 -3.98124 10.8965 10.2267 0 0 -1 0.00346311 -0.0208607 -0.00873554
199 1 2 -2.00854 8.65334 9.44875 0 0 -1 -0.00300648 0.00959897 0.00725726
200 1 2 -2.15404 9.54727 8.17096 0 0 -1 0.00703535 -0.00627163 -0.00367355
202 1 2 -1.86216 11.0775 8.56047 0 0 -1 0.000181997 0.00266949 -0.00440243
280 1 2 -3.5498 9.53262 7.52403 0 0 -1 -0.0048179 0.00457685 0.00237154
281 9 2 -2.37245 7.60318 9.33817 0 0 -1 0.00178036 -0.00883805 0.027347
282 9 2 -1.02388 8.53235 9.72581 0 0 -1 -0.00678195 0.0161225 -0.00852635
287 9 2 -1.17521 11.0335 9.42245 0 0 -1 0.00474753 -0.0152283 0.00695989
396 9 2 -3.76021 8.42667 7.36689 0 0 -1 0.00624467 0.0204344 -0.00463495
201 1 2 -1.09363 8.95074 7.23504 0 0 -1 -0.00166623 0.00679376 -0.0122083
284 9 2 -0.208267 8.77241 7.84299 0 0 -1 -0.00320135 -0.0138486 -0.0159057
285 9 2 -0.81583 9.57547 6.33575 0 0 -1 0.0084256 -0.00177021 0.0193816
286 9 2 -1.42646 7.96975 6.82548 0 0 -1 0.00327466 0.0118742 0.0235235
288 9 2 -1.19441 11.4244 7.72263 0 0 -1 -0.0220338 0.00898425 -0.00867252
395 9 2 -3.53971 10.0373 6.53729 0 0 -1 -0.00772432 -0.0273285 -0.015055
