Generated by RadonPy

396 atoms
12 atom types
398 bonds
14 bond types
760 angles
24 angle types
1064 dihedrals
23 dihedral types
12 impropers
3 improper types

-1.3455374323682250e+01 1.3455374323682250e+01 xlo xhi
-1.3455374323682250e+01 1.3455374323682250e+01 ylo yhi
-1.3455374323682250e+01 1.3455374323682250e+01 zlo zhi

Masses

    1	12.011000	# c3,0
    2	14.007000	# ns,0
    3	12.011000	# c,0
    4	15.999000	# o,0
    5	15.999000	# os,0
    6	15.999000	# oh,0
    7	14.007000	# n2,0
    8	12.011000	# cg,0
    9	1.008000	# hc,0
   10	1.008000	# h1,0
   11	1.008000	# hn,0
   12	1.008000	# ho,0

Pair Coeffs

    1	0.107800	3.397710	# c3,0
    2	0.117400	3.269955	# ns,0
    3	0.098800	3.315212	# c,0
    4	0.146300	3.048121	# o,0
    5	0.072600	3.156098	# os,0
    6	0.093000	3.242871	# oh,0
    7	0.094100	3.384168	# n2,0
    8	0.159600	3.478959	# cg,0
    9	0.020800	2.600177	# hc,0
   10	0.020800	2.421997	# h1,0
   11	0.010000	1.106496	# hn,0
   12	0.004700	0.537925	# ho,0

Bond Coeffs

    1	232.520000	1.538000	# c3,c3
    2	263.770000	1.462000	# c3,n
    3	356.210000	1.379000	# c,n
    4	652.570000	1.218000	# c,o
    5	372.940000	1.358000	# c,os
    6	284.760000	1.432000	# c3,os
    7	293.400000	1.423000	# c3,oh
    8	259.910000	1.466000	# c3,n2
    9	736.750000	1.197000	# c1,n2
   10	794.980000	1.172000	# c1,o
   11	375.920000	1.097000	# c3,hc
   12	375.920000	1.097000	# c3,h1
   13	527.310000	1.013000	# hn,n
   14	563.510000	0.973000	# ho,oh

Angle Coeffs

    1	46.816000	109.800000	# c3,c3,hc
    2	38.960000	107.580000	# hc,c3,hc
    3	64.888000	111.510000	# c3,c3,c3
    4	83.161000	111.610000	# c3,c3,n
    5	46.868000	109.560000	# c3,c3,h1
    6	61.544000	108.880000	# h1,c3,n
    7	65.252000	120.690000	# c,n,c3
    8	46.147000	117.680000	# c3,n,hn
    9	48.691000	117.550000	# c,n,hn
   10	113.811000	123.050000	# n,c,o
   11	115.486000	109.220000	# n,c,os
   12	114.822000	123.250000	# o,c,os
   13	66.906000	115.980000	# c,os,c3
   14	85.306000	107.970000	# c3,c3,os
   15	62.377000	109.780000	# h1,c3,os
   16	38.802000	108.460000	# h1,c3,h1
   17	66.293000	112.480000	# c3,os,c3
   18	84.642000	110.190000	# c3,c3,oh
   19	62.540000	110.260000	# h1,c3,oh
   20	49.027000	107.260000	# c3,oh,ho
   21	84.123000	108.800000	# c3,c3,n2
   22	61.133000	109.810000	# h1,c3,n2
   23	60.897000	151.880000	# c1,n2,c3
   24	106.076000	172.730000	# n2,c1,o

Dihedral Coeffs

    1	2	0.080000	3	0.000000	0.080000	3	0.000000	# hc,c3,c3,c3
    2	3	0.130000	3	0.000000	0.290000	2	180.000000	0.110000	1	0.000000	# c3,c3,c3,c3
    3	1	0.155556	3	0.000000	# X,c3,c3,X
    4	6	0.100000	4	180.000000	0.170000	3	0.000000	1.020000	1	180.000000	0.650000	4	180.000000	0.030000	3	180.000000	2.260000	1	0.000000	# c,n,c3,c3
    5	1	0.000000	2	0.000000	# X,c3,n,X
    6	1	0.000000	2	180.000000	# h1,c3,n,c
    7	1	2.500000	2	180.000000	# X,c,n,X
    8	2	2.500000	2	180.000000	2.000000	1	0.000000	# hn,n,c,o
    9	1	2.700000	2	180.000000	# X,c,os,X
   10	2	2.700000	2	180.000000	1.400000	1	180.000000	# o,c,os,c3
   11	2	0.383000	3	0.000000	0.800000	1	180.000000	# c3,c3,os,c
   12	1	0.383333	3	0.000000	# X,c3,os,X
   13	2	0.000000	3	0.000000	0.250000	1	0.000000	# hc,c3,c3,os
   14	1	0.120000	3	0.000000	# hc,c3,c3,hc
   15	5	0.240000	3	0.000000	0.160000	2	0.000000	0.910000	3	0.000000	1.000000	2	0.000000	0.000000	1	0.000000	# c3,os,c3,c3
   16	1	0.337000	3	0.000000	# c3,os,c3,h1
   17	3	1.010000	3	0.000000	0.000000	2	0.000000	0.020000	1	180.000000	# oh,c3,c3,os
   18	2	0.000000	3	0.000000	0.250000	1	0.000000	# h1,c3,c3,os
   19	2	0.000000	3	0.000000	0.250000	1	0.000000	# h1,c3,c3,oh
   20	1	0.000000	3	0.000000	# ho,oh,c3,c3
   21	1	0.113000	3	0.000000	# ho,oh,c3,h1
   22	1	0.000000	3	0.000000	# X,c3,n2,X
   23	1	0.000000	2	180.000000	# X,c1,n2,X

Improper Coeffs

    1	1.100000	-1	2	# n,X,X,hn
    2	10.500000	-1	2	# c,X,X,o
    3	1.100000	-1	2	# n,c,c3,hn

Atoms

    1	1	1	-5.9811420023023316e-02	-6.8532038698396303e+00	-8.0122360229826537e+00	 9.5621388085470524e+00
    2	1	1	-3.2887501617237996e-02	-8.0782109544625218e+00	-7.4949550135891814e+00	 1.0341724359144617e+01
    3	1	1	-5.9811420023023316e-02	-8.7659924403249168e+00	-8.7304772133473101e+00	 1.0963322330392474e+01
    4	1	1	-2.7445080166070498e-02	-9.0702528347053590e+00	-6.8043508865448921e+00	 9.3717723249757743e+00
    5	1	1	 3.3239706963653456e-02	-9.0283205039965893e+00	-5.2676413725826103e+00	 9.3906025768767147e+00
    6	1	2	-3.1871876709041391e-01	-9.5411889177055045e+00	-4.7432846631711412e+00	 8.1407252372896259e+00
    7	1	3	 4.0684269777329318e-01	-1.0180460668111671e+01	-3.5463402804478585e+00	 8.0308913602288285e+00
    8	1	4	-2.2459831163975047e-01	-1.0431936974583905e+01	-2.7836553256124668e+00	 8.9501991982968168e+00
    9	1	5	-4.4955722076015997e-01	-1.0492013931045506e+01	-3.3506004664895581e+00	 6.7331597461628796e+00
   10	1	1	 9.3268435851154075e-02	-1.1085802662525024e+01	-2.0985713767329099e+00	 6.3720397736880816e+00
   11	1	1	-1.6367983607340351e-02	-1.2546798712957893e+01	-1.9583311939413539e+00	 6.8008079778821671e+00
   12	1	1	-2.6364278218211079e-02	-1.3455526767919498e+01	-3.1704839248092047e+00	 6.5673099623146998e+00
   13	1	1	 4.6679352794197285e-02	-1.3626828760413574e+01	-3.5834101261821822e+00	 5.1034532006622886e+00
   14	1	5	-3.8144863220763392e-01	-1.2438353595735474e+01	-4.1016469297286982e+00	 4.5165191033056677e+00
   15	1	1	 4.6638177757071145e-02	-1.2140324428405146e+01	-5.4376891981313777e+00	 4.9216935557644543e+00
   16	1	1	-2.7414138009193897e-02	-1.0730365013956735e+01	-5.7701336407831523e+00	 4.4546264147474828e+00
   17	1	1	-2.7414138040585737e-02	-1.0218972832930133e+01	-7.0770165748874643e+00	 5.0608839063594004e+00
   18	1	1	 4.6638169849841753e-02	-8.7347655195984082e+00	-7.2612010537689713e+00	 4.7717465376259991e+00
   19	1	5	-3.8144938196271821e-01	-7.9861591870881901e+00	-6.3122378305608668e+00	 5.5409302623715853e+00
   20	1	1	 4.6638169849841704e-02	-6.6601465965576763e+00	-6.1908865593606484e+00	 5.0266396394024291e+00
   21	1	1	-2.7414138040644142e-02	-5.8406497582480688e+00	-5.2189918716525900e+00	 5.8665259563609737e+00
   22	1	1	-2.7414138040644142e-02	-6.4490770995442812e+00	-3.8259917047659968e+00	 6.0321523323940038e+00
   23	1	1	 4.6638169849841704e-02	-6.9044691989359661e+00	-3.1799883429531439e+00	 4.7306941653631283e+00
   24	1	5	-3.8144938196271821e-01	-7.1805237174582155e+00	-1.8046651012033599e+00	 4.9912458971116198e+00
   25	1	1	 4.6638169849841704e-02	-7.8053611159095482e+00	-1.1766151575752914e+00	 3.8740270837151876e+00
   26	1	1	-2.7414138040644142e-02	-7.6466908899451713e+00	 3.3385309339359370e-01	 3.9977900091893508e+00
   27	1	1	-2.7414138040644142e-02	-6.1902688681096105e+00	 8.1874233660006013e-01	 3.9550567524704823e+00
   28	1	1	 4.6638169849841704e-02	-5.5661532601327934e+00	 7.8872996907951798e-01	 2.5608293257768073e+00
   29	1	5	-3.8144938196271821e-01	-5.3350935444795091e+00	-5.5306049940535384e-01	 2.1387824128841277e+00
   30	1	1	 4.6638169849841704e-02	-4.7574645032288236e+00	-6.0287432755610837e-01	 8.3723087330853607e-01
   31	1	1	-2.7414138040644142e-02	-4.5579725844914751e+00	-2.0532307753157002e+00	 4.0695128252468304e-01
   32	1	1	-2.7414138040644142e-02	-3.6152007835366797e+00	-2.8230330534156862e+00	 1.3368656165673416e+00
   33	1	1	 4.6638169849841704e-02	-3.2310146803636881e+00	-4.1820615547109075e+00	 7.5690528147252367e-01
   34	1	5	-3.8144938196271821e-01	-4.3661363186952720e+00	-5.0477230754329447e+00	 7.1726967799552943e-01
   35	1	1	 4.6638169849841704e-02	-4.0847914392651710e+00	-6.2351178339599826e+00	-2.4692190265220404e-02
   36	1	1	-2.7414138040644142e-02	-5.1814228939209954e+00	-7.2746435997372689e+00	 1.9374749554664561e-01
   37	1	1	-2.7414138040644142e-02	-5.2515938365993655e+00	-7.7299718180617427e+00	 1.6547944073227430e+00
   38	1	1	 4.6638169849841704e-02	-6.1828621396462733e+00	-8.9229811693705727e+00	 1.8460581150741961e+00
   39	1	5	-3.8144938196271821e-01	-7.5368020959948385e+00	-8.5408699104697838e+00	 1.6042879980179696e+00
   40	1	1	 4.6638169849841704e-02	-8.3983658071729757e+00	-9.6802238978511213e+00	 1.5951660496530575e+00
   41	1	1	-2.7414138040644142e-02	-9.8412552435487335e+00	-9.2182521552428902e+00	 1.4241235550894169e+00
   42	1	1	-2.7414138040644142e-02	-1.0792671371014743e+01	-1.0409381277183661e+01	 1.3246015669786246e+00
   43	1	1	 4.6638169849841704e-02	-1.2252678135135309e+01	-1.0001802439985346e+01	 1.1475283391279614e+00
   44	1	5	-3.8144938196271821e-01	-1.2409203499983080e+01	-9.2362295502150360e+00	-4.9948486628719646e-02
   45	1	1	 4.6638169849841753e-02	-1.3790622712337345e+01	-9.0988722834490439e+00	-4.0247774256317470e-01
   46	1	1	-2.7414138040585737e-02	-1.3926522192151932e+01	-7.9838113363486665e+00	-1.4343000958938368e+00
   47	1	1	-2.7414138009193897e-02	-1.3877615393439207e+01	-6.6078579693624206e+00	-7.6916897467970546e-01
   48	1	1	 4.6638177757071145e-02	-1.3759774678390635e+01	-5.4812803759235003e+00	-1.7881134232626530e+00
   49	1	5	-3.8144863220763392e-01	-1.3971201716641934e+01	-4.2461096795024327e+00	-1.1068876363865141e+00
   50	1	1	 4.6679352794188923e-02	-1.3363969484936764e+01	-3.1449459884102229e+00	-1.7822699579312036e+00
   51	1	1	-2.6364278222717957e-02	-1.3896420621210606e+01	-1.8518744667539093e+00	-1.1747961058908829e+00
   52	1	1	-1.6367984773930918e-02	-1.3067729850186222e+01	-5.9965292447561236e-01	-1.4807930569326042e+00
   53	1	1	 9.3268297393392666e-02	-1.2833688912235665e+01	-3.1509544227212682e-01	-2.9666392216379678e+00
   54	1	5	-4.4956275553573938e-01	-1.1973002086333320e+01	-1.2950818335820058e+00	-3.5655032170800287e+00
   55	1	3	 4.0664373850152252e-01	-1.0654199441499927e+01	-1.1728873204142882e+00	-3.2748125762367946e+00
   56	1	4	-2.2460728835031044e-01	-1.0142439404885010e+01	-2.4285479879789307e-01	-2.6727998737869538e+00
   57	1	2	-3.2094055444743602e-01	-1.0013209712508452e+01	-2.2939321531833081e+00	-3.7002494087861186e+00
   58	1	1	 2.6215617868968109e-02	-8.6368018622440381e+00	-2.6051532390044110e+00	-3.3792091392940198e+00
   59	1	1	-1.2560648533378460e-02	-8.4662367656962338e+00	-3.6130951684256232e+00	-2.1930035639499414e+00
   60	1	1	-5.7857248886752470e-02	-6.9512416523162788e+00	-3.9023150336642027e+00	-2.1197234021734723e+00
   61	1	1	-2.5499505657057036e-02	-9.2333912754401624e+00	-4.9190187274035146e+00	-2.5000502846500354e+00
   62	1	1	 3.3237711897424735e-02	-9.3011752547559077e+00	-5.8877660763316442e+00	-1.3128189459888451e+00
   63	1	2	-3.1871749637189273e-01	-1.0053290146418490e+01	-7.0761218784236251e+00	-1.6771069145640172e+00
   64	1	3	 4.0692732197293491e-01	-9.5576590684141500e+00	-8.0756294937015856e+00	-2.4519232934329254e+00
   65	1	4	-2.2459665713415267e-01	-8.4560588888955781e+00	-8.1057568686021852e+00	-2.9762638973360160e+00
   66	1	5	-4.4711367139330127e-01	-1.0495223263425093e+01	-9.0443012247288621e+00	-2.5440096812415924e+00
   67	1	1	 1.1624355645730902e-01	-1.0084568137156021e+01	-1.0220223974926435e+01	-3.2562490189793105e+00
   68	1	1	 7.7423929116619453e-02	-1.1292642334020377e+01	-1.1146087357653780e+01	-3.3184566369866606e+00
   69	1	6	-3.9283114776201061e-01	-1.1726150508531063e+01	-1.1480539217341647e+01	-2.0002833668203990e+00
   70	1	1	-2.7445112913841066e-02	-9.9612251562012517e+00	-5.2062954138819917e+00	-1.0948866077411612e-01
   71	1	1	-3.2889497444773569e-02	-9.2506078716832523e+00	-3.9146660908510489e+00	 3.3845693263977950e-01
   72	1	1	-5.9811436155435216e-02	-7.9722236038993932e+00	-4.2569357619086929e+00	 1.1202791985834795e+00
   73	1	1	-5.9811436155435216e-02	-1.0178578118869028e+01	-3.1580270462596687e+00	 1.3189674576186710e+00
   74	1	1	-4.0845954822114616e-02	-8.9791702047296837e+00	-2.9776375194035083e+00	-8.7001571524419408e-01
   75	1	1	-2.5384002652876665e-02	-7.6202644026456285e+00	-4.7369328569549483e+00	 9.6641950894813426e+00
   76	1	1	-9.6202154426603820e-03	-7.0916956871569061e+00	-5.1559894836422151e+00	 1.1056996759078476e+01
   77	1	1	-5.7741549890989764e-02	-7.5453566857018650e+00	-4.1134635603542451e+00	 1.2109387006044722e+01
   78	1	1	 5.7013979455580517e-02	-5.5370410420875267e+00	-5.1992950233057647e+00	 1.1057568602738302e+01
   79	1	7	-2.0537085793959564e-01	-4.9878765656157169e+00	-3.9020030061389592e+00	 1.0630022343947129e+01
   80	1	8	 2.3445713653111641e-01	-3.8236603475437949e+00	-3.9041512584076621e+00	 1.0487356141402119e+01
   81	1	4	-2.1137963838384621e-01	-2.6565572671537101e+00	-3.9266888868496830e+00	 1.0350673943001455e+01
   82	1	1	-4.0730403146522438e-02	-7.6652508389128489e+00	-6.5395051947879796e+00	 1.1487505847450540e+01
   83	1	9	 2.3593134302910084e-02	-6.0982514730338089e+00	-8.4240609217862694e+00	 1.0241102915850613e+01
   84	1	9	 2.3593134302910084e-02	-7.1392649318283175e+00	-8.8108778201478550e+00	 8.8671911394798890e+00
   85	1	9	 2.3593134302910084e-02	-6.3791407262669448e+00	-7.2329116633109729e+00	 8.9613641521487661e+00
   86	1	9	 2.3593134302910084e-02	-9.0954872960779998e+00	-9.4326313157163124e+00	 1.0188906625524631e+01
   87	1	9	 2.3593134302910084e-02	-9.6481551206901148e+00	-8.4430377141541442e+00	 1.1546682849491759e+01
   88	1	9	 2.3593134302910084e-02	-8.0850152313763619e+00	-9.2666756782373660e+00	 1.1634055457100891e+01
   89	1	9	 2.9307436796180777e-02	-8.8947287678735218e+00	-7.1752717754930266e+00	 8.3525880575897595e+00
   90	1	9	 2.9307436796180777e-02	-1.0102819850269160e+01	-7.1026660433496165e+00	 9.6004282885516439e+00
   91	1	10	 5.2988923328362351e-02	-9.6942571977106180e+00	-4.9129495480822811e+00	 1.0187516661416119e+01
   92	1	11	 1.6687411483171058e-01	-9.2940030710508488e+00	-5.1826558389663662e+00	 7.2593656396573518e+00
   93	1	10	 7.0751355637436897e-02	-1.0484997155355908e+01	-1.2744368364565437e+00	 6.7760220246409908e+00
   94	1	10	 7.0751355637436897e-02	-1.1014754817565073e+01	-2.0201158402552739e+00	 5.2820373073425539e+00
   95	1	9	 3.0226219566892313e-02	-1.2974683893207862e+01	-1.0777250927480724e+00	 6.3063702631290273e+00
   96	1	9	 3.0226219566892313e-02	-1.2573527757930258e+01	-1.7410249733981140e+00	 7.8757290218305425e+00
   97	1	9	 2.9135872513157364e-02	-1.3093094042969025e+01	-4.0078797945129931e+00	 7.1710631787511314e+00
   98	1	9	 2.9135872513157364e-02	-1.4448281382102355e+01	-2.9183683277422645e+00	 6.9611996452954781e+00
   99	1	10	 5.6656703904542888e-02	-1.3924470501024746e+01	-2.7095477619511223e+00	 4.5137514167234372e+00
  100	1	10	 5.6656703904542888e-02	-1.4432087721376737e+01	-4.3216609612648700e+00	 5.0085662520252967e+00
  101	1	10	 5.6655979446283575e-02	-1.2865836904527919e+01	-6.1231756960632140e+00	 4.4698713541425565e+00
  102	1	10	 5.6655979446283575e-02	-1.2199045713777981e+01	-5.5353396758234448e+00	 6.0091979111763392e+00
  103	1	9	 2.9094350169944872e-02	-1.0059179402314500e+01	-4.9416327083184788e+00	 4.7069568418484362e+00
  104	1	9	 2.9094350169944872e-02	-1.0716316823811905e+01	-5.8367011300200300e+00	 3.3599214764267700e+00
  105	1	9	 2.9094350169889212e-02	-1.0785903751271810e+01	-7.9170453575429374e+00	 4.6444947738742837e+00
  106	1	9	 2.9094350169889212e-02	-1.0378687352680972e+01	-7.0691680552476379e+00	 6.1451747716194909e+00
  107	1	10	 5.6655979416191618e-02	-8.5459077773004051e+00	-7.1246945848942485e+00	 3.7013131451365862e+00
  108	1	10	 5.6655979416191618e-02	-8.4175453074328317e+00	-8.2684532975333767e+00	 5.0625729163033331e+00
  109	1	10	 5.6655979416191618e-02	-6.1748761094440230e+00	-7.1740458549927775e+00	 5.0355715154735732e+00
  110	1	10	 5.6655979416191618e-02	-6.7049258633620745e+00	-5.8382217415187920e+00	 3.9909924482771908e+00
  111	1	9	 2.9094350169889163e-02	-5.6977282321864120e+00	-5.6448361133073686e+00	 6.8666401322112467e+00
  112	1	9	 2.9094350169889163e-02	-4.8445477738791585e+00	-5.1246476280457847e+00	 5.4175749842246397e+00
  113	1	9	 2.9094350169889163e-02	-5.7162820660644176e+00	-3.1780041381439497e+00	 6.5298612452693998e+00
  114	1	9	 2.9094350169889163e-02	-7.3030342543571694e+00	-3.8678881643392691e+00	 6.7153041839870600e+00
  115	1	10	 5.6655979416191618e-02	-7.8091470234997464e+00	-3.6715246437104589e+00	 4.3564509075040556e+00
  116	1	10	 5.6655979416191618e-02	-6.1161379365827084e+00	-3.2450403442285389e+00	 3.9726323062920619e+00
  117	1	10	 5.6655979416191618e-02	-7.3902550687303155e+00	-1.5388772393159034e+00	 2.9305659725842248e+00
  118	1	10	 5.6655979416191618e-02	-8.8698480196590523e+00	-1.4345253903428956e+00	 3.8926899635733871e+00
  119	1	9	 2.9094350169889163e-02	-8.0695010078217138e+00	 6.4531223697880513e-01	 4.9613963958545071e+00
  120	1	9	 2.9094350169889163e-02	-8.2279870580009327e+00	 8.3112965066784383e-01	 3.2130074225058984e+00
  121	1	9	 2.9094350169889163e-02	-5.5798092308016418e+00	 2.2976470125354798e-01	 4.6490719655369652e+00
  122	1	9	 2.9094350169889163e-02	-6.1731416675163509e+00	 1.8569272420972212e+00	 4.3085847672488651e+00
  123	1	10	 5.6655979416191618e-02	-6.2204709301839625e+00	 1.2973283054707609e+00	 1.8432019235350903e+00
  124	1	10	 5.6655979416191618e-02	-4.6067201047067030e+00	 1.3183795734612040e+00	 2.5910192649273296e+00
  125	1	10	 5.6655979416191618e-02	-5.4255419939680074e+00	-1.0636852383135853e-01	 1.2390406887495775e-01
  126	1	10	 5.6655979416191618e-02	-3.7960795786546333e+00	-7.6188179769900444e-02	 8.4105887225340714e-01
  127	1	9	 2.9094350169889163e-02	-5.5271966735635960e+00	-2.5604533120414250e+00	 3.8987067315649782e-01
  128	1	9	 2.9094350169889163e-02	-4.1626885527050979e+00	-2.0623337940153088e+00	-6.1548388922369179e-01
  129	1	9	 2.9094350169889163e-02	-4.0995857794056469e+00	-2.9620231308208274e+00	 2.3103547060309046e+00
  130	1	9	 2.9094350169889163e-02	-2.7016514680090928e+00	-2.2387518118356975e+00	 1.4968084811830362e+00
  131	1	10	 5.6655979416191618e-02	-2.8163913889402989e+00	-4.0565121258575374e+00	-2.5061119714370772e-01
  132	1	10	 5.6655979416191618e-02	-2.4657267807592973e+00	-4.6424320868566955e+00	 1.3922477846925296e+00
  133	1	10	 5.6655979416191618e-02	-4.0322053836548575e+00	-5.9774824468258334e+00	-1.0885659060762989e+00
  134	1	10	 5.6655979416191618e-02	-3.1166415356241721e+00	-6.6506327418397078e+00	 2.8032351465763927e-01
  135	1	9	 2.9094350169889163e-02	-4.9818466710968714e+00	-8.1363293533041379e+00	-4.5377778159097248e-01
  136	1	9	 2.9094350169889163e-02	-6.1501043805270186e+00	-6.8588191953405913e+00	-1.0023858120452411e-01
  137	1	9	 2.9094350169889163e-02	-5.5934388665971930e+00	-6.8927617031997812e+00	 2.2709429738737494e+00
  138	1	9	 2.9094350169889163e-02	-4.2493448824139968e+00	-8.0106363028462066e+00	 1.9990257858818952e+00
  139	1	10	 5.6655979416191618e-02	-5.8922134867400686e+00	-9.7367221213486808e+00	 1.1709829289944900e+00
  140	1	10	 5.6655979416191618e-02	-6.1021368512746070e+00	-9.2820450838430943e+00	 2.8785162577302703e+00
  141	1	10	 5.6655979416191618e-02	-8.2909367932455442e+00	-1.0229280203346679e+01	 2.5380318861617224e+00
  142	1	10	 5.6655979416191618e-02	-8.1129021417851064e+00	-1.0337514157212869e+01	 7.6554942676567483e-01
  143	1	9	 2.9094350169889163e-02	-1.0124367295866378e+01	-8.5730073625191210e+00	 2.2630197575110822e+00
  144	1	9	 2.9094350169889163e-02	-9.9126716031288034e+00	-8.5941149436297835e+00	 5.3031564691970612e-01
  145	1	9	 2.9094350169889163e-02	-1.0488861690497160e+01	-1.1027797450915605e+01	 4.7186728440721293e-01
  146	1	9	 2.9094350169889163e-02	-1.0703571635288059e+01	-1.1028645861271752e+01	 2.2248455747673384e+00
  147	1	10	 5.6655979416191618e-02	-1.2587117135790390e+01	-9.4007125607380075e+00	 2.0006333749807741e+00
  148	1	10	 5.6655979416191618e-02	-1.2869136974533877e+01	-1.0906843207732702e+01	 1.0912225826347155e+00
  149	1	10	 5.6655979416191618e-02	-1.4125165165972817e+01	-1.0047076362251749e+01	-8.3729743370362009e-01
  150	1	10	 5.6655979416191618e-02	-1.4399752722859063e+01	-8.8835258334813538e+00	 4.8347974875324562e-01
  151	1	9	 2.9094350169889212e-02	-1.3127972970350527e+01	-8.0661622106918625e+00	-2.1799789799070202e+00
  152	1	9	 2.9094350169889212e-02	-1.4884737315131741e+01	-8.0871265108035608e+00	-1.9564623997782102e+00
  153	1	9	 2.9094350169944872e-02	-1.4777022335360989e+01	-6.4617260621795367e+00	-1.5744521080319807e-01
  154	1	9	 2.9094350169944872e-02	-1.3032714544022753e+01	-6.5429158600890673e+00	-7.2393553942257327e-02
  155	1	10	 5.6655979446283575e-02	-1.2767841698545954e+01	-5.5071175445252276e+00	-2.2544572242151077e+00
  156	1	10	 5.6655979446283575e-02	-1.4520132247203463e+01	-5.5766243707599612e+00	-2.5706277898844747e+00
  157	1	10	 5.6656703904542881e-02	-1.2280866958925650e+01	-3.2197747398343894e+00	-1.6475065667444784e+00
  158	1	10	 5.6656703904542881e-02	-1.3604820924859506e+01	-3.1890824149852319e+00	-2.8502595750144857e+00
  159	1	9	 2.9135872513149391e-02	-1.4928965354614398e+01	-1.7023191314806794e+00	-1.5150262046315333e+00
  160	1	9	 2.9135872513149391e-02	-1.3963786278960079e+01	-1.9634392833836607e+00	-8.4751136231354440e-02
  161	1	9	 3.0226219562580137e-02	-1.3583210173860973e+01	 2.6213716580047297e-01	-1.0400850702361955e+00
  162	1	9	 3.0226219562580137e-02	-1.2107122749859377e+01	-6.9321227616326819e-01	-9.6127128669488648e-01
  163	1	10	 7.0751354513914483e-02	-1.3784880106722870e+01	-3.4215651838241179e-01	-3.5089897624638753e+00
  164	1	10	 7.0751354513914483e-02	-1.2414688329920866e+01	 6.8814207507377656e-01	-3.1099540582515446e+00
  165	1	11	 1.6660637654871013e-01	-1.0574249998495493e+01	-2.9526907567814216e+00	-4.2207111487230531e+00
  166	1	10	 4.9812076801800262e-02	-8.1009783442439520e+00	-1.6737625116711667e+00	-3.1597554900026661e+00
  167	1	10	 4.9812076801800262e-02	-8.2045088564475037e+00	-3.0257746595229360e+00	-4.2949156488372520e+00
  168	1	9	 2.3669299166299038e-02	-6.5749234964256882e+00	-4.2611130483800714e+00	-3.0853244594773037e+00
  169	1	9	 2.3669299166299038e-02	-6.6928464880298808e+00	-4.6666650954072049e+00	-1.3887432148762859e+00
  170	1	9	 2.3669299166299038e-02	-6.3915578329653986e+00	-2.9948316381497411e+00	-1.8704302018404468e+00
  171	1	9	 2.9384510281214599e-02	-8.7798013793398297e+00	-5.4157911395460729e+00	-3.3675806406161963e+00
  172	1	9	 2.9384510281214599e-02	-1.0264144571169629e+01	-4.6893460753105236e+00	-2.8000963032543393e+00
  173	1	10	 5.2988907320204559e-02	-8.2945725178189438e+00	-6.2257180625784239e+00	-1.0487592258663536e+00
  174	1	11	 1.6687412633301671e-01	-1.0953945434163609e+01	-7.2656785780700792e+00	-1.2554279825972077e+00
  175	1	10	 7.3234707124522680e-02	-9.2705529944380203e+00	-1.0699424633257504e+01	-2.7010695244861478e+00
  176	1	10	 7.3234707124522680e-02	-9.7575005176285750e+00	-9.9582329471670157e+00	-4.2680426094166020e+00
  177	1	10	 5.9990755002538983e-02	-1.1048985358518337e+01	-1.2071707333407627e+01	-3.8469780548031163e+00
  178	1	10	 5.9990755002538983e-02	-1.2131518339775994e+01	-1.0657516421768474e+01	-3.8242493331213816e+00
  179	1	12	 2.1021349548150839e-01	-1.1782344716969277e+01	-1.0630460871859690e+01	-1.5136179920658237e+00
  180	1	9	 2.9307436675055896e-02	-1.0019720605779401e+01	-5.9142020653193761e+00	 7.2841636285258904e-01
  181	1	9	 2.9307436675055896e-02	-1.1002840015984551e+01	-4.9740598094118598e+00	-3.6804010212837213e-01
  182	1	9	 2.3593134244104141e-02	-7.4368090366884747e+00	-3.3502953297142195e+00	 1.4146326529044146e+00
  183	1	9	 2.3593134244104141e-02	-7.2844592856072916e+00	-4.8846731759218676e+00	 5.5751945509146150e-01
  184	1	9	 2.3593134244104141e-02	-8.2113242234145787e+00	-4.8071246650361488e+00	 2.0381594002312178e+00
  185	1	9	 2.3593134244104141e-02	-1.0380813158347593e+01	-3.7502214472788591e+00	 2.2165180722339834e+00
  186	1	9	 2.3593134244104141e-02	-9.7262565214048902e+00	-2.2123503282509880e+00	 1.6367133576577024e+00
  187	1	9	 2.3593134244104141e-02	-1.1144157803346893e+01	-2.9230530819575162e+00	 8.5666632347667448e-01
  188	1	9	 2.7829100189780142e-02	-9.9347820347727982e+00	-2.4886999009925179e+00	-1.0895206073211718e+00
  189	1	9	 2.7829100189780142e-02	-8.3049582675347864e+00	-2.1655752876873482e+00	-5.6526550145005539e-01
  190	1	9	 2.9386472122884203e-02	-7.6066973574604217e+00	-3.6428961159976598e+00	 9.5691580255259030e+00
  191	1	9	 2.9386472122884203e-02	-6.9494980500318171e+00	-5.0988285553419219e+00	 8.8767257517809366e+00
  192	1	9	 2.3671236107673393e-02	-7.1786357725678460e+00	-4.3789210361014872e+00	 1.3107544374463082e+01
  193	1	9	 2.3671236107673393e-02	-7.1747901377815726e+00	-3.1097374062879100e+00	 1.1874542448142773e+01
  194	1	9	 2.3671236107673393e-02	-8.6377391397878540e+00	-4.0487387929125944e+00	 1.2163811512548158e+01
  195	1	10	 5.2992750461176838e-02	-5.1807865011315943e+00	-5.9942598323446550e+00	 1.0391842347133254e+01
  196	1	10	 5.2992750461176838e-02	-5.1767399952438335e+00	-5.4383844131312795e+00	 1.2068276354266485e+01
  197	1	9	 2.7831050077436224e-02	-8.5615956317676094e+00	-6.3702809601783841e+00	 1.2102229560249736e+01
  198	1	9	 2.7831050077436224e-02	-6.9561624602029593e+00	-7.0444740605930285e+00	 1.2157547126112732e+01
  199	2	1	-5.9811420023023316e-02	 4.9239200794856641e+00	 7.0702776275499906e+00	-1.7577886458795000e+01
  200	2	1	-3.2887501617237996e-02	 5.2877612212219134e+00	 8.0601558423677879e+00	-1.8702046756157038e+01
  201	2	1	-5.9811420023023316e-02	 6.8021404740286666e+00	 7.9027937614404076e+00	-1.8962498614288950e+01
  202	2	1	-2.7445080166070498e-02	 5.0071321571788436e+00	 9.5126389613405777e+00	-1.8240063835966254e+01
  203	2	1	 3.3239706963653456e-02	 3.7109088874817746e+00	 1.0127419808587028e+01	-1.8792728991374382e+01
  204	2	2	-3.1871876709041391e-01	 3.2633763432095861e+00	 1.1199761197470153e+01	-1.7926717501840962e+01
  205	2	3	 4.0684269777329318e-01	 2.5690772581567174e+00	 1.2284799533179333e+01	-1.8367226636010269e+01
  206	2	4	-2.2459831163975047e-01	 2.2629434768277634e+00	 1.2514794465433155e+01	-1.9526295233311227e+01
  207	2	5	-4.4955722076015997e-01	 2.2819999347308224e+00	 1.3063618518772133e+01	-1.7303970105057275e+01
  208	2	1	 9.3268435851154075e-02	 1.4638815118972679e+00	 1.4217892732500900e+01	-1.7525109923928252e+01
  209	2	1	-1.6367983607340351e-02	 2.1853092694528331e+00	 1.5362207047571500e+01	-1.8237925243720500e+01
  210	2	1	-2.6364278218211079e-02	 3.6064031977108368e+00	 1.5686076136894872e+01	-1.7763348480543328e+01
  211	2	1	 4.6679352794197285e-02	 3.7181926681302233e+00	 1.6142579785888827e+01	-1.6306695957871298e+01
  212	2	5	-3.8144863220763392e-01	 3.4157737156604799e+00	 1.5118645577960969e+01	-1.5365613734434456e+01
  213	2	1	 4.6638177757071145e-02	 4.4641651985524380e+00	 1.4162293546238150e+01	-1.5209848672617953e+01
  214	2	1	-2.7414138009193897e-02	 3.9203651401841881e+00	 1.2991567788790888e+01	-1.4403412519269317e+01
  215	2	1	-2.7414138040585737e-02	 4.8795845336956356e+00	 1.1801227075497611e+01	-1.4402908741737642e+01
  216	2	1	 4.6638169849841753e-02	 4.2133456083156329e+00	 1.0572005415346627e+01	-1.3798313427721352e+01
  217	2	5	-3.8144938196271821e-01	 3.2097125143023275e+00	 1.0091361597211453e+01	-1.4700692713376299e+01
  218	2	1	 4.6638169849841704e-02	 2.3207220231809305e+00	 9.2007548405206538e+00	-1.4026863448819029e+01
  219	2	1	-2.7414138040644142e-02	 1.2772879948614853e+00	 8.6467235812336511e+00	-1.4989078689649627e+01
  220	2	1	-2.7414138040644142e-02	 4.6415941664817950e-01	 9.6975747985759249e+00	-1.5745781422117112e+01
  221	2	1	 4.6638169849841704e-02	-1.2515798368594933e-01	 1.0790801801216373e+01	-1.4864841361412385e+01
  222	2	5	-3.8144938196271821e-01	-1.0722835131016009e+00	 1.1523117353841627e+01	-1.5640904815211826e+01
  223	2	1	 4.6638169849841704e-02	-1.5201217751603715e+00	 1.2689521165362720e+01	-1.4953889951684969e+01
  224	2	1	-2.7414138040644142e-02	-2.8311252345133444e+00	 1.3159957036545395e+01	-1.5571925436251711e+01
  225	2	1	-2.7414138040644142e-02	-3.9863247266950466e+00	 1.2157535868223572e+01	-1.5434904453704611e+01
  226	2	1	 4.6638169849841704e-02	-4.5834565028927550e+00	 1.2085957623807714e+01	-1.4030411182645386e+01
  227	2	5	-3.8144938196271821e-01	-3.6765191894131832e+00	 1.1459709342646063e+01	-1.3126424650689625e+01
  228	2	1	 4.6638169849841704e-02	-4.2132695380136891e+00	 1.1387782160195444e+01	-1.1808510131213962e+01
  229	2	1	-2.7414138040644142e-02	-3.2016813789610334e+00	 1.0744442081084127e+01	-1.0864436873188955e+01
  230	2	1	-2.7414138040644142e-02	-2.8387556923184234e+00	 9.3129070008169084e+00	-1.1270819875590377e+01
  231	2	1	 4.6638169849841704e-02	-2.0299509129581632e+00	 8.6033717399115925e+00	-1.0187627389508931e+01
  232	2	5	-3.8144938196271821e-01	-7.3956982953233075e-01	 9.2007038653737272e+00	-1.0055139749489156e+01
  233	2	1	 4.6638169849841704e-02	-5.6517198469482555e-02	 8.7049921337877230e+00	-8.9030643829969591e+00
  234	2	1	-2.7414138040644142e-02	 1.4152199115429402e+00	 9.1095321192498879e+00	-8.9386669189676624e+00
  235	2	1	-2.7414138040644142e-02	 2.1485157814432472e+00	 8.4860507658216946e+00	-1.0130494924647964e+01
  236	2	1	 4.6638169849841704e-02	 3.6577831457070031e+00	 8.6951678542999193e+00	-1.0056361012382784e+01
  237	2	5	-3.8144938196271821e-01	 3.9771357511294569e+00	 1.0076781284978638e+01	-1.0219986959760785e+01
  238	2	1	 4.6638169849841704e-02	 5.3625265024527087e+00	 1.0317170815447195e+01	-9.9681773358146906e+00
  239	2	1	-2.7414138040644142e-02	 5.6761721113533081e+00	 1.1784010081813124e+01	-1.0241329949172558e+01
  240	2	1	-2.7414138040644142e-02	 7.1307392566271481e+00	 1.2107980250972314e+01	-9.9049319583340125e+00
  241	2	1	 4.6638169849841704e-02	 7.4970639779004440e+00	 1.3567986505985679e+01	-1.0156493326069754e+01
  242	2	5	-3.8144938196271821e-01	 6.6785758925811223e+00	 1.4426423031840869e+01	-9.3579216180282856e+00
  243	2	1	 4.6638169849841753e-02	 7.1914851750800945e+00	 1.5763588622577300e+01	-9.3385518952248496e+00
  244	2	1	-2.7414138040585737e-02	 6.1077362009173584e+00	 1.6698627225856779e+01	-8.8116003561119332e+00
  245	2	1	-2.7414138009193897e-02	 5.0826735377520311e+00	 1.7023030975437550e+01	-9.8988205248592891e+00
  246	2	1	 4.6638177757071145e-02	 3.8628188466965798e+00	 1.7745477687518314e+01	-9.3408450967502183e+00
  247	2	5	-3.8144863220763392e-01	 3.0911241334323161e+00	 1.8223129617377552e+01	-1.0441187097188157e+01
  248	2	1	 4.6679352794188923e-02	 1.7178950679558040e+00	 1.8408755747656400e+01	-1.0098815060443387e+01
  249	2	1	-2.6364278222717957e-02	 1.0455526171012750e+00	 1.9205514599003813e+01	-1.1211331853633075e+01
  250	2	1	-1.6367984773930918e-02	-4.8572961836174722e-01	 1.9146198699458203e+01	-1.1220144253426522e+01
  251	2	1	 9.3268297393392666e-02	-1.1658283833919469e+00	 1.9567334925270060e+01	-9.9149251547316908e+00
  252	2	5	-4.4956275553573938e-01	-9.1947814318462173e-01	 1.8625608764421411e+01	-8.8602893779849072e+00
  253	2	3	 4.0664373850152252e-01	-1.6299731050851345e+00	 1.7472561923153297e+01	-8.9262655456313880e+00
  254	2	4	-2.2460728835031044e-01	-2.5335835451490651e+00	 1.7238681091906617e+01	-9.7124373141616775e+00
  255	2	2	-3.2094055444743602e-01	-1.1164318870068151e+00	 1.6597272453927104e+01	-8.0214177072427191e+00
  256	2	1	 2.6215617868968109e-02	-1.4889513854081371e+00	 1.5200580368032494e+01	-7.9513860738551614e+00
  257	2	1	-1.2560648533378460e-02	-4.7836046030767143e-01	 1.4230599265753073e+01	-8.6513615702466247e+00
  258	2	1	-5.7857248886752470e-02	-9.9385035217154982e-01	 1.2809603608618509e+01	-8.3362904355569647e+00
  259	2	1	-2.5499505657057036e-02	 9.3258056025672675e-01	 1.4420025626171862e+01	-8.0500270852270184e+00
  260	2	1	 3.3237711897424735e-02	 2.0322587272984300e+00	 1.3666718005826546e+01	-8.8088550653831756e+00
  261	2	2	-3.1871749637189273e-01	 3.3252049451326195e+00	 1.3912836617086510e+01	-8.1938040482678076e+00
  262	2	3	 4.0692732197293491e-01	 3.7355015976029970e+00	 1.3328284238543805e+01	-7.0383988236138864e+00
  263	2	4	-2.2459665713415267e-01	 3.0847714946527747e+00	 1.2564906158115775e+01	-6.3432960092248063e+00
  264	2	5	-4.4711367139330127e-01	 4.9994853271789390e+00	 1.3733139690481272e+01	-6.7848862213998311e+00
  265	2	1	 1.1624355645730902e-01	 5.6135629327121421e+00	 1.3123745299344341e+01	-5.6402185876223179e+00
  266	2	1	 7.7423929116619453e-02	 6.9863096302598766e+00	 1.3764204642307739e+01	-5.4792391146277533e+00
  267	2	6	-3.9283114776201061e-01	 7.7730400285328205e+00	 1.3545366565125937e+01	-6.6499369109892852e+00
  268	2	1	-2.7445112913841066e-02	 2.0638926354785672e+00	 1.4110476570922234e+01	-1.0275193888183011e+01
  269	2	1	-3.2889497444773569e-02	 7.2438706495992733e-01	 1.3915392387852162e+01	-1.1011132388258561e+01
  270	2	1	-5.9811436155435216e-02	 5.2814137493579238e-01	 1.2433907671099087e+01	-1.1370787198517695e+01
  271	2	1	-5.9811436155435216e-02	 7.8143198318900686e-01	 1.4690798964009829e+01	-1.2349236581515669e+01
  272	2	1	-4.0845954822114616e-02	-4.5732425807278920e-01	 1.4491124549362187e+01	-1.0183969817385593e+01
  273	2	1	-2.5384002652876665e-02	 2.6112004057207243e+00	 9.0795568354655458e+00	-1.8970916591303517e+01
  274	2	1	-9.6202154426603820e-03	 2.9942566092067278e+00	 7.9912592193000211e+00	-2.0002306952813555e+01
  275	2	1	-5.7741549890989764e-02	 2.5872891322653575e+00	 8.4662101320753393e+00	-2.1419696432598059e+01
  276	2	1	 5.7013979455580517e-02	 2.2380319267947235e+00	 6.6662492216677087e+00	-1.9700148884756779e+01
  277	2	7	-2.0537085793959564e-01	 7.8520726748385639e-01	 6.9016554092080087e+00	-1.9665099782120471e+01
  278	2	8	 2.3445713653111641e-01	 1.6249861457644466e-01	 5.9701358616218982e+00	-1.9318310323201487e+01
  279	2	4	-2.1137963838384621e-01	-4.4340719864594114e-01	 5.0254839821658530e+00	-1.8969268004198575e+01
  280	2	1	-4.0730403146522438e-02	 4.5319203341222760e+00	 7.7385333509514123e+00	-2.0014105885400134e+01
  281	2	9	 2.3593134302910084e-02	 5.0299231040257704e+00	 6.0332630837619572e+00	-1.7915391010593098e+01
  282	2	9	 2.3593134302910084e-02	 5.5828775513559785e+00	 7.2016657936555557e+00	-1.6711212290389746e+01
  283	2	9	 2.3593134302910084e-02	 3.9026908700630569e+00	 7.2054302867081823e+00	-1.7214792572882946e+01
  284	2	9	 2.3593134302910084e-02	 7.3856042766579257e+00	 8.1384280561566555e+00	-1.8065083772890443e+01
  285	2	9	 2.3593134302910084e-02	 7.1397415316464183e+00	 8.5719675838651650e+00	-1.9762107191560439e+01
  286	2	9	 2.3593134302910084e-02	 7.0475654933545204e+00	 6.8775691833936232e+00	-1.9262169775029452e+01
  287	2	9	 2.9307436796180777e-02	 5.0041470703851649e+00	 9.5471384546033491e+00	-1.7141916100457102e+01
  288	2	9	 2.9307436796180777e-02	 5.8315568291428193e+00	 1.0176494927557501e+01	-1.8535172867450992e+01
  289	2	10	 5.2988923328362351e-02	 3.9288941304609315e+00	 1.0572303129863492e+01	-1.9771969152332236e+01
  290	2	11	 1.6687411483171058e-01	 3.3108871310124242e+00	 1.1098779135580415e+01	-1.6917515856250034e+01
  291	2	10	 7.0751355637436897e-02	 5.5984155904007271e-01	 1.3930103519096662e+01	-1.8075796576474314e+01
  292	2	10	 7.0751355637436897e-02	 1.1247029312293264e+00	 1.4555754461014873e+01	-1.6540165363590763e+01
  293	2	9	 3.0226219566892313e-02	 1.5626862812983329e+00	 1.6262976466527583e+01	-1.8174865310309709e+01
  294	2	9	 3.0226219566892313e-02	 2.2524570583710486e+00	 1.5118457995334966e+01	-1.9305384498227280e+01
  295	2	9	 2.9135872513157364e-02	 4.2502598039452142e+00	 1.4822247952070834e+01	-1.7954023090235562e+01
  296	2	9	 2.9135872513157364e-02	 3.9884575678829188e+00	 1.6496372377056616e+01	-1.8397168283039768e+01
  297	2	10	 5.6656703904542888e-02	 3.0140266682415211e+00	 1.6962847467326945e+01	-1.6129819145532622e+01
  298	2	10	 5.6656703904542888e-02	 4.7223588381408099e+00	 1.6535608102365966e+01	-1.6107600834408121e+01
  299	2	10	 5.6655979446283575e-02	 5.3059431551619962e+00	 1.4630062441843901e+01	-1.4687349365627865e+01
  300	2	10	 5.6655979446283575e-02	 4.8124917251653425e+00	 1.3806710721870417e+01	-1.6183439456295368e+01
  301	2	9	 2.9094350169944872e-02	 2.9437521768755350e+00	 1.2697156083597651e+01	-1.4803566780216325e+01
  302	2	9	 2.9094350169944872e-02	 3.7299115954211208e+00	 1.3316957958031837e+01	-1.3373433796526982e+01
  303	2	9	 2.9094350169889212e-02	 5.7768819930726583e+00	 1.2057908251522067e+01	-1.3828965386707440e+01
  304	2	9	 2.9094350169889212e-02	 5.1908819606773617e+00	 1.1576635701276498e+01	-1.5429509751938919e+01
  305	2	10	 5.6655979416191618e-02	 3.7700734716901088e+00	 1.0829132151174127e+01	-1.2830054905816651e+01
  306	2	10	 5.6655979416191618e-02	 4.9533805888751772e+00	 9.7781403312018398e+00	-1.3650353352588231e+01
  307	2	10	 5.6655979416191618e-02	 2.8935858897796822e+00	 8.3701234185832085e+00	-1.3597855458337218e+01
  308	2	10	 5.6655979416191618e-02	 1.8242151780510594e+00	 9.7348983306048069e+00	-1.3210092706379958e+01
  309	2	9	 2.9094350169889163e-02	 1.7769299535037044e+00	 8.0107284786951176e+00	-1.5729258659798893e+01
  310	2	9	 2.9094350169889163e-02	 5.9317364038990217e-01	 7.9999722940756905e+00	-1.4426604425782354e+01
  311	2	9	 2.9094350169889163e-02	-3.4011577354820055e-01	 9.1923455520314477e+00	-1.6295759091132684e+01
  312	2	9	 2.9094350169889163e-02	 1.0832397723050804e+00	 1.0169064629823978e+01	-1.6515282195466511e+01
  313	2	10	 5.6655979416191618e-02	 6.6343555998499881e-01	 1.1466039503044493e+01	-1.4515152662448596e+01
  314	2	10	 5.6655979416191618e-02	-6.3811333735162501e-01	 1.0353798651628747e+01	-1.4000977496762456e+01
  315	2	10	 5.6655979416191618e-02	-1.6359146709194272e+00	 1.2501114995601469e+01	-1.3883954984046325e+01
  316	2	10	 5.6655979416191618e-02	-7.5884369595754553e-01	 1.3467590963265877e+01	-1.5076614990781508e+01
  317	2	9	 2.9094350169889163e-02	-2.6647313264484995e+00	 1.3326411154352865e+01	-1.6643801621427652e+01
  318	2	9	 2.9094350169889163e-02	-3.1198310846971284e+00	 1.4122891840342238e+01	-1.5135487109017713e+01
  319	2	9	 2.9094350169889163e-02	-3.6559545834265408e+00	 1.1161247613787575e+01	-1.5750305820534052e+01
  320	2	9	 2.9094350169889163e-02	-4.7820188686185574e+00	 1.2468460776007300e+01	-1.6122872353002062e+01
  321	2	10	 5.6655979416191618e-02	-4.8297239458296808e+00	 1.3092655893486631e+01	-1.3673054344255373e+01
  322	2	10	 5.6655979416191618e-02	-5.5066980721911492e+00	 1.1495900018398890e+01	-1.4067949730793895e+01
  323	2	10	 5.6655979416191618e-02	-4.4415217704945196e+00	 1.2399441442116228e+01	-1.1453366368268327e+01
  324	2	10	 5.6655979416191618e-02	-5.1407876098273313e+00	 1.0803623619642408e+01	-1.1820466343087780e+01
  325	2	9	 2.9094350169889163e-02	-2.2892564103960846e+00	 1.1347926493555295e+01	-1.0848656364320950e+01
  326	2	9	 2.9094350169889163e-02	-3.6185146951062497e+00	 1.0749897159830089e+01	-9.8505698997500701e+00
  327	2	9	 2.9094350169889163e-02	-2.2639276292676818e+00	 9.3354199097549255e+00	-1.2203929697639820e+01
  328	2	9	 2.9094350169889163e-02	-3.7557869645000861e+00	 8.7413997172471838e+00	-1.1455134041547010e+01
  329	2	10	 5.6655979416191618e-02	-2.5654554367370079e+00	 8.6451018772024195e+00	-9.2314589481694842e+00
  330	2	10	 5.6655979416191618e-02	-1.8983242225671115e+00	 7.5515088799393837e+00	-1.0466061638003522e+01
  331	2	10	 5.6655979416191618e-02	-5.2971468945864553e-01	 9.1261647323292951e+00	-8.0088237297601541e+00
  332	2	10	 5.6655979416191618e-02	-1.3764538345625565e-01	 7.6121552954407603e+00	-8.8569415340766255e+00
  333	2	9	 2.9094350169889163e-02	 1.8894629317052618e+00	 8.7900917974255321e+00	-8.0034271476955734e+00
  334	2	9	 2.9094350169889163e-02	 1.4987664144810906e+00	 1.0199263986011548e+01	-8.9951116841775693e+00
  335	2	9	 2.9094350169889163e-02	 1.7603144699651656e+00	 8.9250612289256459e+00	-1.1054609318041017e+01
  336	2	9	 2.9094350169889163e-02	 1.9463265543146560e+00	 7.4090563503801521e+00	-1.0161692788526786e+01
  337	2	10	 5.6655979416191618e-02	 4.0396973640665435e+00	 8.3288803965431129e+00	-9.0959691593728476e+00
  338	2	10	 5.6655979416191618e-02	 4.1405990948523144e+00	 8.1291523023003336e+00	-1.0861301033341716e+01
  339	2	10	 5.6655979416191618e-02	 5.9703215425360723e+00	 9.6774975209381662e+00	-1.0618871634879206e+01
  340	2	10	 5.6655979416191618e-02	 5.5831772390765622e+00	 1.0073673579144291e+01	-8.9223254922824538e+00
  341	2	9	 2.9094350169889163e-02	 5.4663712281342702e+00	 1.2017287589376107e+01	-1.1290999091811253e+01
  342	2	9	 2.9094350169889163e-02	 4.9982310974615087e+00	 1.2409103997235457e+01	-9.6555025764526530e+00
  343	2	9	 2.9094350169889163e-02	 7.3046447996477486e+00	 1.1873391131932383e+01	-8.8482298007149360e+00
  344	2	9	 2.9094350169889163e-02	 7.7970152605019329e+00	 1.1467958997558451e+01	-1.0495114763413117e+01
  345	2	10	 5.6655979416191618e-02	 7.3532708695052076e+00	 1.3820788794492243e+01	-1.1213073297105577e+01
  346	2	10	 5.6655979416191618e-02	 8.5522273431689388e+00	 1.3718253232866116e+01	-9.8989262211057483e+00
  347	2	10	 5.6655979416191618e-02	 8.0563489717166483e+00	 1.5784957331751908e+01	-8.6665163428307679e+00
  348	2	10	 5.6655979416191618e-02	 7.5159050760884529e+00	 1.6071487077706038e+01	-1.0339693448058725e+01
  349	2	9	 2.9094350169889212e-02	 5.6066702378214215e+00	 1.6241514361074394e+01	-7.9510887328987137e+00
  350	2	9	 2.9094350169889212e-02	 6.5682594218833596e+00	 1.7634057620916739e+01	-8.4733814067215150e+00
  351	2	9	 2.9094350169944872e-02	 5.5528543084221749e+00	 1.7636871190909932e+01	-1.0677680960063240e+01
  352	2	9	 2.9094350169944872e-02	 4.7499157517013950e+00	 1.6108106572339597e+01	-1.0404544265931328e+01
  353	2	10	 5.6655979446283575e-02	 3.2770603019112095e+00	 1.7056710983539482e+01	-8.7207140693271832e+00
  354	2	10	 5.6655979446283575e-02	 4.1590933835646560e+00	 1.8605015305728003e+01	-8.7301247634896484e+00
  355	2	10	 5.6656703904542881e-02	 1.2575112493246388e+00	 1.7421692932848675e+01	-9.9957357964669153e+00
  356	2	10	 5.6656703904542881e-02	 1.6445176677934947e+00	 1.8948986693179197e+01	-9.1483806623356951e+00
  357	2	9	 2.9135872513149391e-02	 1.3731739102417007e+00	 2.0250634488968011e+01	-1.1143062909303408e+01
  358	2	9	 2.9135872513149391e-02	 1.4104195411436582e+00	 1.8850404206456229e+01	-1.2183932292085702e+01
  359	2	9	 3.0226219562580137e-02	-8.4414201850170612e-01	 1.9800202775980466e+01	-1.2024162208854181e+01
  360	2	9	 3.0226219562580137e-02	-7.8419507379159326e-01	 1.8125558328083549e+01	-1.1485914506601624e+01
  361	2	10	 7.0751354513914483e-02	-7.7675110839615202e-01	 2.0536173010058263e+01	-9.5838470083822571e+00
  362	2	10	 7.0751354513914483e-02	-2.2456018681298677e+00	 1.9691595972796470e+01	-1.0060645984775501e+01
  363	2	11	 1.6660637654871013e-01	-3.9569504344643036e-01	 1.6961181131877460e+01	-7.4150198184764617e+00
  364	2	10	 4.9812076801800262e-02	-2.4893723841683557e+00	 1.5074832102467145e+01	-8.3827798991917604e+00
  365	2	10	 4.9812076801800262e-02	-1.5588818252514849e+00	 1.4963538368807264e+01	-6.8830982577371955e+00
  366	2	9	 2.3669299166299038e-02	-1.0975840165758117e+00	 1.2662663642420025e+01	-7.2544472191498590e+00
  367	2	9	 2.3669299166299038e-02	-3.3001943183741078e-01	 1.2021898410693259e+01	-8.6886824649844563e+00
  368	2	9	 2.3669299166299038e-02	-1.9800289733250787e+00	 1.2643629676924315e+01	-8.7821868043329658e+00
  369	2	9	 2.9384510281214599e-02	 9.2567806567803257e-01	 1.4116475161379428e+01	-6.9950649945688239e+00
  370	2	9	 2.9384510281214599e-02	 1.2013715229142432e+00	 1.5484435850770335e+01	-8.0465935417576269e+00
  371	2	10	 5.2988907320204559e-02	 1.8580480046695307e+00	 1.2588375478050423e+01	-8.7454818240362382e+00
  372	2	11	 1.6687412633301671e-01	 4.0339670047242642e+00	 1.4447832210447512e+01	-8.6799736373583709e+00
  373	2	10	 7.3234707124522680e-02	 5.7185464185109263e+00	 1.2049670452428265e+01	-5.8294800088273915e+00
  374	2	10	 7.3234707124522680e-02	 5.0081958186467741e+00	 1.3298746094910220e+01	-4.7445377433595581e+00
  375	2	10	 5.9990755002538983e-02	 7.5172439113829199e+00	 1.3340672940584513e+01	-4.6223811117592195e+00
  376	2	10	 5.9990755002538983e-02	 6.8969674361882518e+00	 1.4846676263224468e+01	-5.3431732256035307e+00
  377	2	12	 2.1021349548150839e-01	 7.2003024150806318e+00	 1.3793096631512087e+01	-7.4070601571320491e+00
  378	2	9	 2.9307436675055896e-02	 2.8655777340357469e+00	 1.3577437764499416e+01	-1.0804163648177106e+01
  379	2	9	 2.9307436675055896e-02	 2.3451342602831247e+00	 1.5171249079849392e+01	-1.0312724844912427e+01
  380	2	9	 2.3593134244104141e-02	-4.3514070555799522e-01	 1.2272916526520984e+01	-1.1862192400880366e+01
  381	2	9	 2.3593134244104141e-02	 5.7733465746727308e-01	 1.1775863852230943e+01	-1.0505725986367851e+01
  382	2	9	 2.3593134244104141e-02	 1.3080535771028976e+00	 1.2093272871327741e+01	-1.2062224751771511e+01
  383	2	9	 2.3593134244104141e-02	 1.5730813097899734e+00	 1.4308037325094144e+01	-1.3000370359670754e+01
  384	2	9	 2.3593134244104141e-02	-1.6688657600472867e-01	 1.4608486897516407e+01	-1.2891249841045449e+01
  385	2	9	 2.3593134244104141e-02	 9.7721352566657038e-01	 1.5756902257438652e+01	-1.2186840199257501e+01
  386	2	9	 2.7829100189780142e-02	-4.2504884663058418e-01	 1.5576223692629094e+01	-1.0332140358179476e+01
  387	2	9	 2.7829100189780142e-02	-1.4103683808219181e+00	 1.4169641348450920e+01	-1.0625823807826656e+01
  388	2	9	 2.9386472122884203e-02	 1.6730294785312365e+00	 9.5671444702578707e+00	-1.9267945392228302e+01
  389	2	9	 2.9386472122884203e-02	 2.3988084854381397e+00	 8.6243841700303161e+00	-1.7996898382558214e+01
  390	2	9	 2.3671236107673393e-02	 2.8389511715842390e+00	 7.7113161628823113e+00	-2.2173401510814774e+01
  391	2	9	 2.3671236107673393e-02	 1.5118376531038402e+00	 8.6619476853125530e+00	-2.1490609417252024e+01
  392	2	9	 2.3671236107673393e-02	 3.1020636321676727e+00	 9.3935677812607246e+00	-2.1694406740324446e+01
  393	2	10	 5.2992750461176838e-02	 2.5729191866803576e+00	 6.2497318597776532e+00	-1.8742839319686880e+01
  394	2	10	 5.2992750461176838e-02	 2.4737573019474843e+00	 5.9238192964462293e+00	-2.0475869255333492e+01
  395	2	9	 2.7831050077436224e-02	 4.9819754419034563e+00	 8.3586609505731762e+00	-2.0803313229817363e+01
  396	2	9	 2.7831050077436224e-02	 4.7368750824630066e+00	 6.7032566455911171e+00	-2.0318984375681165e+01

Bonds

    1	1	1	2
    2	1	2	3
    3	1	2	4
    4	1	4	5
    5	2	5	6
    6	3	6	7
    7	4	7	8
    8	5	7	9
    9	6	9	10
   10	1	10	11
   11	1	11	12
   12	1	12	13
   13	6	13	14
   14	6	14	15
   15	1	15	16
   16	1	16	17
   17	1	17	18
   18	6	18	19
   19	6	19	20
   20	1	20	21
   21	1	21	22
   22	1	22	23
   23	6	23	24
   24	6	24	25
   25	1	25	26
   26	1	26	27
   27	1	27	28
   28	6	28	29
   29	6	29	30
   30	1	30	31
   31	1	31	32
   32	1	32	33
   33	6	33	34
   34	6	34	35
   35	1	35	36
   36	1	36	37
   37	1	37	38
   38	6	38	39
   39	6	39	40
   40	1	40	41
   41	1	41	42
   42	1	42	43
   43	6	43	44
   44	6	44	45
   45	1	45	46
   46	1	46	47
   47	1	47	48
   48	6	48	49
   49	6	49	50
   50	1	50	51
   51	1	51	52
   52	1	52	53
   53	6	53	54
   54	5	54	55
   55	4	55	56
   56	3	55	57
   57	2	57	58
   58	1	58	59
   59	1	59	60
   60	1	59	61
   61	1	61	62
   62	2	62	63
   63	3	63	64
   64	4	64	65
   65	5	64	66
   66	6	66	67
   67	1	67	68
   68	7	68	69
   69	1	62	70
   70	1	70	71
   71	1	71	72
   72	1	71	73
   73	1	71	74
   74	1	5	75
   75	1	75	76
   76	1	76	77
   77	1	76	78
   78	8	78	79
   79	9	79	80
   80	10	80	81
   81	1	76	82
   82	1	82	2
   83	1	74	59
   84	11	1	83
   85	11	1	84
   86	11	1	85
   87	11	3	86
   88	11	3	87
   89	11	3	88
   90	11	4	89
   91	11	4	90
   92	12	5	91
   93	13	6	92
   94	12	10	93
   95	12	10	94
   96	11	11	95
   97	11	11	96
   98	11	12	97
   99	11	12	98
  100	12	13	99
  101	12	13	100
  102	12	15	101
  103	12	15	102
  104	11	16	103
  105	11	16	104
  106	11	17	105
  107	11	17	106
  108	12	18	107
  109	12	18	108
  110	12	20	109
  111	12	20	110
  112	11	21	111
  113	11	21	112
  114	11	22	113
  115	11	22	114
  116	12	23	115
  117	12	23	116
  118	12	25	117
  119	12	25	118
  120	11	26	119
  121	11	26	120
  122	11	27	121
  123	11	27	122
  124	12	28	123
  125	12	28	124
  126	12	30	125
  127	12	30	126
  128	11	31	127
  129	11	31	128
  130	11	32	129
  131	11	32	130
  132	12	33	131
  133	12	33	132
  134	12	35	133
  135	12	35	134
  136	11	36	135
  137	11	36	136
  138	11	37	137
  139	11	37	138
  140	12	38	139
  141	12	38	140
  142	12	40	141
  143	12	40	142
  144	11	41	143
  145	11	41	144
  146	11	42	145
  147	11	42	146
  148	12	43	147
  149	12	43	148
  150	12	45	149
  151	12	45	150
  152	11	46	151
  153	11	46	152
  154	11	47	153
  155	11	47	154
  156	12	48	155
  157	12	48	156
  158	12	50	157
  159	12	50	158
  160	11	51	159
  161	11	51	160
  162	11	52	161
  163	11	52	162
  164	12	53	163
  165	12	53	164
  166	13	57	165
  167	12	58	166
  168	12	58	167
  169	11	60	168
  170	11	60	169
  171	11	60	170
  172	11	61	171
  173	11	61	172
  174	12	62	173
  175	13	63	174
  176	12	67	175
  177	12	67	176
  178	12	68	177
  179	12	68	178
  180	14	69	179
  181	11	70	180
  182	11	70	181
  183	11	72	182
  184	11	72	183
  185	11	72	184
  186	11	73	185
  187	11	73	186
  188	11	73	187
  189	11	74	188
  190	11	74	189
  191	11	75	190
  192	11	75	191
  193	11	77	192
  194	11	77	193
  195	11	77	194
  196	12	78	195
  197	12	78	196
  198	11	82	197
  199	11	82	198
  200	1	199	200
  201	1	200	201
  202	1	200	202
  203	1	202	203
  204	2	203	204
  205	3	204	205
  206	4	205	206
  207	5	205	207
  208	6	207	208
  209	1	208	209
  210	1	209	210
  211	1	210	211
  212	6	211	212
  213	6	212	213
  214	1	213	214
  215	1	214	215
  216	1	215	216
  217	6	216	217
  218	6	217	218
  219	1	218	219
  220	1	219	220
  221	1	220	221
  222	6	221	222
  223	6	222	223
  224	1	223	224
  225	1	224	225
  226	1	225	226
  227	6	226	227
  228	6	227	228
  229	1	228	229
  230	1	229	230
  231	1	230	231
  232	6	231	232
  233	6	232	233
  234	1	233	234
  235	1	234	235
  236	1	235	236
  237	6	236	237
  238	6	237	238
  239	1	238	239
  240	1	239	240
  241	1	240	241
  242	6	241	242
  243	6	242	243
  244	1	243	244
  245	1	244	245
  246	1	245	246
  247	6	246	247
  248	6	247	248
  249	1	248	249
  250	1	249	250
  251	1	250	251
  252	6	251	252
  253	5	252	253
  254	4	253	254
  255	3	253	255
  256	2	255	256
  257	1	256	257
  258	1	257	258
  259	1	257	259
  260	1	259	260
  261	2	260	261
  262	3	261	262
  263	4	262	263
  264	5	262	264
  265	6	264	265
  266	1	265	266
  267	7	266	267
  268	1	260	268
  269	1	268	269
  270	1	269	270
  271	1	269	271
  272	1	269	272
  273	1	203	273
  274	1	273	274
  275	1	274	275
  276	1	274	276
  277	8	276	277
  278	9	277	278
  279	10	278	279
  280	1	274	280
  281	1	280	200
  282	1	272	257
  283	11	199	281
  284	11	199	282
  285	11	199	283
  286	11	201	284
  287	11	201	285
  288	11	201	286
  289	11	202	287
  290	11	202	288
  291	12	203	289
  292	13	204	290
  293	12	208	291
  294	12	208	292
  295	11	209	293
  296	11	209	294
  297	11	210	295
  298	11	210	296
  299	12	211	297
  300	12	211	298
  301	12	213	299
  302	12	213	300
  303	11	214	301
  304	11	214	302
  305	11	215	303
  306	11	215	304
  307	12	216	305
  308	12	216	306
  309	12	218	307
  310	12	218	308
  311	11	219	309
  312	11	219	310
  313	11	220	311
  314	11	220	312
  315	12	221	313
  316	12	221	314
  317	12	223	315
  318	12	223	316
  319	11	224	317
  320	11	224	318
  321	11	225	319
  322	11	225	320
  323	12	226	321
  324	12	226	322
  325	12	228	323
  326	12	228	324
  327	11	229	325
  328	11	229	326
  329	11	230	327
  330	11	230	328
  331	12	231	329
  332	12	231	330
  333	12	233	331
  334	12	233	332
  335	11	234	333
  336	11	234	334
  337	11	235	335
  338	11	235	336
  339	12	236	337
  340	12	236	338
  341	12	238	339
  342	12	238	340
  343	11	239	341
  344	11	239	342
  345	11	240	343
  346	11	240	344
  347	12	241	345
  348	12	241	346
  349	12	243	347
  350	12	243	348
  351	11	244	349
  352	11	244	350
  353	11	245	351
  354	11	245	352
  355	12	246	353
  356	12	246	354
  357	12	248	355
  358	12	248	356
  359	11	249	357
  360	11	249	358
  361	11	250	359
  362	11	250	360
  363	12	251	361
  364	12	251	362
  365	13	255	363
  366	12	256	364
  367	12	256	365
  368	11	258	366
  369	11	258	367
  370	11	258	368
  371	11	259	369
  372	11	259	370
  373	12	260	371
  374	13	261	372
  375	12	265	373
  376	12	265	374
  377	12	266	375
  378	12	266	376
  379	14	267	377
  380	11	268	378
  381	11	268	379
  382	11	270	380
  383	11	270	381
  384	11	270	382
  385	11	271	383
  386	11	271	384
  387	11	271	385
  388	11	272	386
  389	11	272	387
  390	11	273	388
  391	11	273	389
  392	11	275	390
  393	11	275	391
  394	11	275	392
  395	12	276	393
  396	12	276	394
  397	11	280	395
  398	11	280	396

Angles

    1	1	2	1	83
    2	1	2	1	84
    3	1	2	1	85
    4	2	83	1	84
    5	2	83	1	85
    6	2	84	1	85
    7	3	1	2	3
    8	3	1	2	4
    9	3	1	2	82
   10	3	3	2	4
   11	3	3	2	82
   12	3	4	2	82
   13	1	2	3	86
   14	1	2	3	87
   15	1	2	3	88
   16	2	86	3	87
   17	2	86	3	88
   18	2	87	3	88
   19	3	2	4	5
   20	1	2	4	89
   21	1	2	4	90
   22	1	5	4	89
   23	1	5	4	90
   24	2	89	4	90
   25	4	4	5	6
   26	3	4	5	75
   27	5	4	5	91
   28	4	6	5	75
   29	6	6	5	91
   30	5	75	5	91
   31	7	5	6	7
   32	8	5	6	92
   33	9	7	6	92
   34	10	6	7	8
   35	11	6	7	9
   36	12	8	7	9
   37	13	7	9	10
   38	14	9	10	11
   39	15	9	10	93
   40	15	9	10	94
   41	5	11	10	93
   42	5	11	10	94
   43	16	93	10	94
   44	3	10	11	12
   45	1	10	11	95
   46	1	10	11	96
   47	1	12	11	95
   48	1	12	11	96
   49	2	95	11	96
   50	3	11	12	13
   51	1	11	12	97
   52	1	11	12	98
   53	1	13	12	97
   54	1	13	12	98
   55	2	97	12	98
   56	14	12	13	14
   57	5	12	13	99
   58	5	12	13	100
   59	15	14	13	99
   60	15	14	13	100
   61	16	99	13	100
   62	17	13	14	15
   63	14	14	15	16
   64	15	14	15	101
   65	15	14	15	102
   66	5	16	15	101
   67	5	16	15	102
   68	16	101	15	102
   69	3	15	16	17
   70	1	15	16	103
   71	1	15	16	104
   72	1	17	16	103
   73	1	17	16	104
   74	2	103	16	104
   75	3	16	17	18
   76	1	16	17	105
   77	1	16	17	106
   78	1	18	17	105
   79	1	18	17	106
   80	2	105	17	106
   81	14	17	18	19
   82	5	17	18	107
   83	5	17	18	108
   84	15	19	18	107
   85	15	19	18	108
   86	16	107	18	108
   87	17	18	19	20
   88	14	19	20	21
   89	15	19	20	109
   90	15	19	20	110
   91	5	21	20	109
   92	5	21	20	110
   93	16	109	20	110
   94	3	20	21	22
   95	1	20	21	111
   96	1	20	21	112
   97	1	22	21	111
   98	1	22	21	112
   99	2	111	21	112
  100	3	21	22	23
  101	1	21	22	113
  102	1	21	22	114
  103	1	23	22	113
  104	1	23	22	114
  105	2	113	22	114
  106	14	22	23	24
  107	5	22	23	115
  108	5	22	23	116
  109	15	24	23	115
  110	15	24	23	116
  111	16	115	23	116
  112	17	23	24	25
  113	14	24	25	26
  114	15	24	25	117
  115	15	24	25	118
  116	5	26	25	117
  117	5	26	25	118
  118	16	117	25	118
  119	3	25	26	27
  120	1	25	26	119
  121	1	25	26	120
  122	1	27	26	119
  123	1	27	26	120
  124	2	119	26	120
  125	3	26	27	28
  126	1	26	27	121
  127	1	26	27	122
  128	1	28	27	121
  129	1	28	27	122
  130	2	121	27	122
  131	14	27	28	29
  132	5	27	28	123
  133	5	27	28	124
  134	15	29	28	123
  135	15	29	28	124
  136	16	123	28	124
  137	17	28	29	30
  138	14	29	30	31
  139	15	29	30	125
  140	15	29	30	126
  141	5	31	30	125
  142	5	31	30	126
  143	16	125	30	126
  144	3	30	31	32
  145	1	30	31	127
  146	1	30	31	128
  147	1	32	31	127
  148	1	32	31	128
  149	2	127	31	128
  150	3	31	32	33
  151	1	31	32	129
  152	1	31	32	130
  153	1	33	32	129
  154	1	33	32	130
  155	2	129	32	130
  156	14	32	33	34
  157	5	32	33	131
  158	5	32	33	132
  159	15	34	33	131
  160	15	34	33	132
  161	16	131	33	132
  162	17	33	34	35
  163	14	34	35	36
  164	15	34	35	133
  165	15	34	35	134
  166	5	36	35	133
  167	5	36	35	134
  168	16	133	35	134
  169	3	35	36	37
  170	1	35	36	135
  171	1	35	36	136
  172	1	37	36	135
  173	1	37	36	136
  174	2	135	36	136
  175	3	36	37	38
  176	1	36	37	137
  177	1	36	37	138
  178	1	38	37	137
  179	1	38	37	138
  180	2	137	37	138
  181	14	37	38	39
  182	5	37	38	139
  183	5	37	38	140
  184	15	39	38	139
  185	15	39	38	140
  186	16	139	38	140
  187	17	38	39	40
  188	14	39	40	41
  189	15	39	40	141
  190	15	39	40	142
  191	5	41	40	141
  192	5	41	40	142
  193	16	141	40	142
  194	3	40	41	42
  195	1	40	41	143
  196	1	40	41	144
  197	1	42	41	143
  198	1	42	41	144
  199	2	143	41	144
  200	3	41	42	43
  201	1	41	42	145
  202	1	41	42	146
  203	1	43	42	145
  204	1	43	42	146
  205	2	145	42	146
  206	14	42	43	44
  207	5	42	43	147
  208	5	42	43	148
  209	15	44	43	147
  210	15	44	43	148
  211	16	147	43	148
  212	17	43	44	45
  213	14	44	45	46
  214	15	44	45	149
  215	15	44	45	150
  216	5	46	45	149
  217	5	46	45	150
  218	16	149	45	150
  219	3	45	46	47
  220	1	45	46	151
  221	1	45	46	152
  222	1	47	46	151
  223	1	47	46	152
  224	2	151	46	152
  225	3	46	47	48
  226	1	46	47	153
  227	1	46	47	154
  228	1	48	47	153
  229	1	48	47	154
  230	2	153	47	154
  231	14	47	48	49
  232	5	47	48	155
  233	5	47	48	156
  234	15	49	48	155
  235	15	49	48	156
  236	16	155	48	156
  237	17	48	49	50
  238	14	49	50	51
  239	15	49	50	157
  240	15	49	50	158
  241	5	51	50	157
  242	5	51	50	158
  243	16	157	50	158
  244	3	50	51	52
  245	1	50	51	159
  246	1	50	51	160
  247	1	52	51	159
  248	1	52	51	160
  249	2	159	51	160
  250	3	51	52	53
  251	1	51	52	161
  252	1	51	52	162
  253	1	53	52	161
  254	1	53	52	162
  255	2	161	52	162
  256	14	52	53	54
  257	5	52	53	163
  258	5	52	53	164
  259	15	54	53	163
  260	15	54	53	164
  261	16	163	53	164
  262	13	53	54	55
  263	12	54	55	56
  264	11	54	55	57
  265	10	56	55	57
  266	7	55	57	58
  267	9	55	57	165
  268	8	58	57	165
  269	4	57	58	59
  270	6	57	58	166
  271	6	57	58	167
  272	5	59	58	166
  273	5	59	58	167
  274	16	166	58	167
  275	3	58	59	60
  276	3	58	59	61
  277	3	58	59	74
  278	3	60	59	61
  279	3	60	59	74
  280	3	61	59	74
  281	1	59	60	168
  282	1	59	60	169
  283	1	59	60	170
  284	2	168	60	169
  285	2	168	60	170
  286	2	169	60	170
  287	3	59	61	62
  288	1	59	61	171
  289	1	59	61	172
  290	1	62	61	171
  291	1	62	61	172
  292	2	171	61	172
  293	4	61	62	63
  294	3	61	62	70
  295	5	61	62	173
  296	4	63	62	70
  297	6	63	62	173
  298	5	70	62	173
  299	7	62	63	64
  300	8	62	63	174
  301	9	64	63	174
  302	10	63	64	65
  303	11	63	64	66
  304	12	65	64	66
  305	13	64	66	67
  306	14	66	67	68
  307	15	66	67	175
  308	15	66	67	176
  309	5	68	67	175
  310	5	68	67	176
  311	16	175	67	176
  312	18	67	68	69
  313	5	67	68	177
  314	5	67	68	178
  315	19	69	68	177
  316	19	69	68	178
  317	16	177	68	178
  318	20	68	69	179
  319	3	62	70	71
  320	1	62	70	180
  321	1	62	70	181
  322	1	71	70	180
  323	1	71	70	181
  324	2	180	70	181
  325	3	70	71	72
  326	3	70	71	73
  327	3	70	71	74
  328	3	72	71	73
  329	3	72	71	74
  330	3	73	71	74
  331	1	71	72	182
  332	1	71	72	183
  333	1	71	72	184
  334	2	182	72	183
  335	2	182	72	184
  336	2	183	72	184
  337	1	71	73	185
  338	1	71	73	186
  339	1	71	73	187
  340	2	185	73	186
  341	2	185	73	187
  342	2	186	73	187
  343	3	71	74	59
  344	1	71	74	188
  345	1	71	74	189
  346	1	59	74	188
  347	1	59	74	189
  348	2	188	74	189
  349	3	5	75	76
  350	1	5	75	190
  351	1	5	75	191
  352	1	76	75	190
  353	1	76	75	191
  354	2	190	75	191
  355	3	75	76	77
  356	3	75	76	78
  357	3	75	76	82
  358	3	77	76	78
  359	3	77	76	82
  360	3	78	76	82
  361	1	76	77	192
  362	1	76	77	193
  363	1	76	77	194
  364	2	192	77	193
  365	2	192	77	194
  366	2	193	77	194
  367	21	76	78	79
  368	5	76	78	195
  369	5	76	78	196
  370	22	79	78	195
  371	22	79	78	196
  372	16	195	78	196
  373	23	78	79	80
  374	24	79	80	81
  375	3	76	82	2
  376	1	76	82	197
  377	1	76	82	198
  378	1	2	82	197
  379	1	2	82	198
  380	2	197	82	198
  381	1	200	199	281
  382	1	200	199	282
  383	1	200	199	283
  384	2	281	199	282
  385	2	281	199	283
  386	2	282	199	283
  387	3	199	200	201
  388	3	199	200	202
  389	3	199	200	280
  390	3	201	200	202
  391	3	201	200	280
  392	3	202	200	280
  393	1	200	201	284
  394	1	200	201	285
  395	1	200	201	286
  396	2	284	201	285
  397	2	284	201	286
  398	2	285	201	286
  399	3	200	202	203
  400	1	200	202	287
  401	1	200	202	288
  402	1	203	202	287
  403	1	203	202	288
  404	2	287	202	288
  405	4	202	203	204
  406	3	202	203	273
  407	5	202	203	289
  408	4	204	203	273
  409	6	204	203	289
  410	5	273	203	289
  411	7	203	204	205
  412	8	203	204	290
  413	9	205	204	290
  414	10	204	205	206
  415	11	204	205	207
  416	12	206	205	207
  417	13	205	207	208
  418	14	207	208	209
  419	15	207	208	291
  420	15	207	208	292
  421	5	209	208	291
  422	5	209	208	292
  423	16	291	208	292
  424	3	208	209	210
  425	1	208	209	293
  426	1	208	209	294
  427	1	210	209	293
  428	1	210	209	294
  429	2	293	209	294
  430	3	209	210	211
  431	1	209	210	295
  432	1	209	210	296
  433	1	211	210	295
  434	1	211	210	296
  435	2	295	210	296
  436	14	210	211	212
  437	5	210	211	297
  438	5	210	211	298
  439	15	212	211	297
  440	15	212	211	298
  441	16	297	211	298
  442	17	211	212	213
  443	14	212	213	214
  444	15	212	213	299
  445	15	212	213	300
  446	5	214	213	299
  447	5	214	213	300
  448	16	299	213	300
  449	3	213	214	215
  450	1	213	214	301
  451	1	213	214	302
  452	1	215	214	301
  453	1	215	214	302
  454	2	301	214	302
  455	3	214	215	216
  456	1	214	215	303
  457	1	214	215	304
  458	1	216	215	303
  459	1	216	215	304
  460	2	303	215	304
  461	14	215	216	217
  462	5	215	216	305
  463	5	215	216	306
  464	15	217	216	305
  465	15	217	216	306
  466	16	305	216	306
  467	17	216	217	218
  468	14	217	218	219
  469	15	217	218	307
  470	15	217	218	308
  471	5	219	218	307
  472	5	219	218	308
  473	16	307	218	308
  474	3	218	219	220
  475	1	218	219	309
  476	1	218	219	310
  477	1	220	219	309
  478	1	220	219	310
  479	2	309	219	310
  480	3	219	220	221
  481	1	219	220	311
  482	1	219	220	312
  483	1	221	220	311
  484	1	221	220	312
  485	2	311	220	312
  486	14	220	221	222
  487	5	220	221	313
  488	5	220	221	314
  489	15	222	221	313
  490	15	222	221	314
  491	16	313	221	314
  492	17	221	222	223
  493	14	222	223	224
  494	15	222	223	315
  495	15	222	223	316
  496	5	224	223	315
  497	5	224	223	316
  498	16	315	223	316
  499	3	223	224	225
  500	1	223	224	317
  501	1	223	224	318
  502	1	225	224	317
  503	1	225	224	318
  504	2	317	224	318
  505	3	224	225	226
  506	1	224	225	319
  507	1	224	225	320
  508	1	226	225	319
  509	1	226	225	320
  510	2	319	225	320
  511	14	225	226	227
  512	5	225	226	321
  513	5	225	226	322
  514	15	227	226	321
  515	15	227	226	322
  516	16	321	226	322
  517	17	226	227	228
  518	14	227	228	229
  519	15	227	228	323
  520	15	227	228	324
  521	5	229	228	323
  522	5	229	228	324
  523	16	323	228	324
  524	3	228	229	230
  525	1	228	229	325
  526	1	228	229	326
  527	1	230	229	325
  528	1	230	229	326
  529	2	325	229	326
  530	3	229	230	231
  531	1	229	230	327
  532	1	229	230	328
  533	1	231	230	327
  534	1	231	230	328
  535	2	327	230	328
  536	14	230	231	232
  537	5	230	231	329
  538	5	230	231	330
  539	15	232	231	329
  540	15	232	231	330
  541	16	329	231	330
  542	17	231	232	233
  543	14	232	233	234
  544	15	232	233	331
  545	15	232	233	332
  546	5	234	233	331
  547	5	234	233	332
  548	16	331	233	332
  549	3	233	234	235
  550	1	233	234	333
  551	1	233	234	334
  552	1	235	234	333
  553	1	235	234	334
  554	2	333	234	334
  555	3	234	235	236
  556	1	234	235	335
  557	1	234	235	336
  558	1	236	235	335
  559	1	236	235	336
  560	2	335	235	336
  561	14	235	236	237
  562	5	235	236	337
  563	5	235	236	338
  564	15	237	236	337
  565	15	237	236	338
  566	16	337	236	338
  567	17	236	237	238
  568	14	237	238	239
  569	15	237	238	339
  570	15	237	238	340
  571	5	239	238	339
  572	5	239	238	340
  573	16	339	238	340
  574	3	238	239	240
  575	1	238	239	341
  576	1	238	239	342
  577	1	240	239	341
  578	1	240	239	342
  579	2	341	239	342
  580	3	239	240	241
  581	1	239	240	343
  582	1	239	240	344
  583	1	241	240	343
  584	1	241	240	344
  585	2	343	240	344
  586	14	240	241	242
  587	5	240	241	345
  588	5	240	241	346
  589	15	242	241	345
  590	15	242	241	346
  591	16	345	241	346
  592	17	241	242	243
  593	14	242	243	244
  594	15	242	243	347
  595	15	242	243	348
  596	5	244	243	347
  597	5	244	243	348
  598	16	347	243	348
  599	3	243	244	245
  600	1	243	244	349
  601	1	243	244	350
  602	1	245	244	349
  603	1	245	244	350
  604	2	349	244	350
  605	3	244	245	246
  606	1	244	245	351
  607	1	244	245	352
  608	1	246	245	351
  609	1	246	245	352
  610	2	351	245	352
  611	14	245	246	247
  612	5	245	246	353
  613	5	245	246	354
  614	15	247	246	353
  615	15	247	246	354
  616	16	353	246	354
  617	17	246	247	248
  618	14	247	248	249
  619	15	247	248	355
  620	15	247	248	356
  621	5	249	248	355
  622	5	249	248	356
  623	16	355	248	356
  624	3	248	249	250
  625	1	248	249	357
  626	1	248	249	358
  627	1	250	249	357
  628	1	250	249	358
  629	2	357	249	358
  630	3	249	250	251
  631	1	249	250	359
  632	1	249	250	360
  633	1	251	250	359
  634	1	251	250	360
  635	2	359	250	360
  636	14	250	251	252
  637	5	250	251	361
  638	5	250	251	362
  639	15	252	251	361
  640	15	252	251	362
  641	16	361	251	362
  642	13	251	252	253
  643	12	252	253	254
  644	11	252	253	255
  645	10	254	253	255
  646	7	253	255	256
  647	9	253	255	363
  648	8	256	255	363
  649	4	255	256	257
  650	6	255	256	364
  651	6	255	256	365
  652	5	257	256	364
  653	5	257	256	365
  654	16	364	256	365
  655	3	256	257	258
  656	3	256	257	259
  657	3	256	257	272
  658	3	258	257	259
  659	3	258	257	272
  660	3	259	257	272
  661	1	257	258	366
  662	1	257	258	367
  663	1	257	258	368
  664	2	366	258	367
  665	2	366	258	368
  666	2	367	258	368
  667	3	257	259	260
  668	1	257	259	369
  669	1	257	259	370
  670	1	260	259	369
  671	1	260	259	370
  672	2	369	259	370
  673	4	259	260	261
  674	3	259	260	268
  675	5	259	260	371
  676	4	261	260	268
  677	6	261	260	371
  678	5	268	260	371
  679	7	260	261	262
  680	8	260	261	372
  681	9	262	261	372
  682	10	261	262	263
  683	11	261	262	264
  684	12	263	262	264
  685	13	262	264	265
  686	14	264	265	266
  687	15	264	265	373
  688	15	264	265	374
  689	5	266	265	373
  690	5	266	265	374
  691	16	373	265	374
  692	18	265	266	267
  693	5	265	266	375
  694	5	265	266	376
  695	19	267	266	375
  696	19	267	266	376
  697	16	375	266	376
  698	20	266	267	377
  699	3	260	268	269
  700	1	260	268	378
  701	1	260	268	379
  702	1	269	268	378
  703	1	269	268	379
  704	2	378	268	379
  705	3	268	269	270
  706	3	268	269	271
  707	3	268	269	272
  708	3	270	269	271
  709	3	270	269	272
  710	3	271	269	272
  711	1	269	270	380
  712	1	269	270	381
  713	1	269	270	382
  714	2	380	270	381
  715	2	380	270	382
  716	2	381	270	382
  717	1	269	271	383
  718	1	269	271	384
  719	1	269	271	385
  720	2	383	271	384
  721	2	383	271	385
  722	2	384	271	385
  723	3	269	272	257
  724	1	269	272	386
  725	1	269	272	387
  726	1	257	272	386
  727	1	257	272	387
  728	2	386	272	387
  729	3	203	273	274
  730	1	203	273	388
  731	1	203	273	389
  732	1	274	273	388
  733	1	274	273	389
  734	2	388	273	389
  735	3	273	274	275
  736	3	273	274	276
  737	3	273	274	280
  738	3	275	274	276
  739	3	275	274	280
  740	3	276	274	280
  741	1	274	275	390
  742	1	274	275	391
  743	1	274	275	392
  744	2	390	275	391
  745	2	390	275	392
  746	2	391	275	392
  747	21	274	276	277
  748	5	274	276	393
  749	5	274	276	394
  750	22	277	276	393
  751	22	277	276	394
  752	16	393	276	394
  753	23	276	277	278
  754	24	277	278	279
  755	3	274	280	200
  756	1	274	280	395
  757	1	274	280	396
  758	1	200	280	395
  759	1	200	280	396
  760	2	395	280	396

Dihedrals

    1	1	83	1	2	3
    2	1	83	1	2	4
    3	1	83	1	2	82
    4	1	84	1	2	3
    5	1	84	1	2	4
    6	1	84	1	2	82
    7	1	85	1	2	3
    8	1	85	1	2	4
    9	1	85	1	2	82
   10	1	1	2	3	86
   11	1	1	2	3	87
   12	1	1	2	3	88
   13	1	4	2	3	86
   14	1	4	2	3	87
   15	1	4	2	3	88
   16	1	82	2	3	86
   17	1	82	2	3	87
   18	1	82	2	3	88
   19	2	1	2	4	5
   20	1	1	2	4	89
   21	1	1	2	4	90
   22	2	3	2	4	5
   23	1	3	2	4	89
   24	1	3	2	4	90
   25	2	82	2	4	5
   26	1	82	2	4	89
   27	1	82	2	4	90
   28	3	2	4	5	6
   29	2	2	4	5	75
   30	3	2	4	5	91
   31	3	89	4	5	6
   32	1	89	4	5	75
   33	3	89	4	5	91
   34	3	90	4	5	6
   35	1	90	4	5	75
   36	3	90	4	5	91
   37	4	4	5	6	7
   38	5	4	5	6	92
   39	4	75	5	6	7
   40	5	75	5	6	92
   41	6	91	5	6	7
   42	5	91	5	6	92
   43	7	5	6	7	8
   44	7	5	6	7	9
   45	8	92	6	7	8
   46	7	92	6	7	9
   47	9	6	7	9	10
   48	10	8	7	9	10
   49	11	7	9	10	11
   50	12	7	9	10	93
   51	12	7	9	10	94
   52	3	9	10	11	12
   53	13	9	10	11	95
   54	13	9	10	11	96
   55	3	93	10	11	12
   56	3	93	10	11	95
   57	3	93	10	11	96
   58	3	94	10	11	12
   59	3	94	10	11	95
   60	3	94	10	11	96
   61	2	10	11	12	13
   62	1	10	11	12	97
   63	1	10	11	12	98
   64	1	95	11	12	13
   65	14	95	11	12	97
   66	14	95	11	12	98
   67	1	96	11	12	13
   68	14	96	11	12	97
   69	14	96	11	12	98
   70	3	11	12	13	14
   71	3	11	12	13	99
   72	3	11	12	13	100
   73	13	97	12	13	14
   74	3	97	12	13	99
   75	3	97	12	13	100
   76	13	98	12	13	14
   77	3	98	12	13	99
   78	3	98	12	13	100
   79	15	12	13	14	15
   80	16	99	13	14	15
   81	16	100	13	14	15
   82	15	13	14	15	16
   83	16	13	14	15	101
   84	16	13	14	15	102
   85	3	14	15	16	17
   86	13	14	15	16	103
   87	13	14	15	16	104
   88	3	101	15	16	17
   89	3	101	15	16	103
   90	3	101	15	16	104
   91	3	102	15	16	17
   92	3	102	15	16	103
   93	3	102	15	16	104
   94	2	15	16	17	18
   95	1	15	16	17	105
   96	1	15	16	17	106
   97	1	103	16	17	18
   98	14	103	16	17	105
   99	14	103	16	17	106
  100	1	104	16	17	18
  101	14	104	16	17	105
  102	14	104	16	17	106
  103	3	16	17	18	19
  104	3	16	17	18	107
  105	3	16	17	18	108
  106	13	105	17	18	19
  107	3	105	17	18	107
  108	3	105	17	18	108
  109	13	106	17	18	19
  110	3	106	17	18	107
  111	3	106	17	18	108
  112	15	17	18	19	20
  113	16	107	18	19	20
  114	16	108	18	19	20
  115	15	18	19	20	21
  116	16	18	19	20	109
  117	16	18	19	20	110
  118	3	19	20	21	22
  119	13	19	20	21	111
  120	13	19	20	21	112
  121	3	109	20	21	22
  122	3	109	20	21	111
  123	3	109	20	21	112
  124	3	110	20	21	22
  125	3	110	20	21	111
  126	3	110	20	21	112
  127	2	20	21	22	23
  128	1	20	21	22	113
  129	1	20	21	22	114
  130	1	111	21	22	23
  131	14	111	21	22	113
  132	14	111	21	22	114
  133	1	112	21	22	23
  134	14	112	21	22	113
  135	14	112	21	22	114
  136	3	21	22	23	24
  137	3	21	22	23	115
  138	3	21	22	23	116
  139	13	113	22	23	24
  140	3	113	22	23	115
  141	3	113	22	23	116
  142	13	114	22	23	24
  143	3	114	22	23	115
  144	3	114	22	23	116
  145	15	22	23	24	25
  146	16	115	23	24	25
  147	16	116	23	24	25
  148	15	23	24	25	26
  149	16	23	24	25	117
  150	16	23	24	25	118
  151	3	24	25	26	27
  152	13	24	25	26	119
  153	13	24	25	26	120
  154	3	117	25	26	27
  155	3	117	25	26	119
  156	3	117	25	26	120
  157	3	118	25	26	27
  158	3	118	25	26	119
  159	3	118	25	26	120
  160	2	25	26	27	28
  161	1	25	26	27	121
  162	1	25	26	27	122
  163	1	119	26	27	28
  164	14	119	26	27	121
  165	14	119	26	27	122
  166	1	120	26	27	28
  167	14	120	26	27	121
  168	14	120	26	27	122
  169	3	26	27	28	29
  170	3	26	27	28	123
  171	3	26	27	28	124
  172	13	121	27	28	29
  173	3	121	27	28	123
  174	3	121	27	28	124
  175	13	122	27	28	29
  176	3	122	27	28	123
  177	3	122	27	28	124
  178	15	27	28	29	30
  179	16	123	28	29	30
  180	16	124	28	29	30
  181	15	28	29	30	31
  182	16	28	29	30	125
  183	16	28	29	30	126
  184	3	29	30	31	32
  185	13	29	30	31	127
  186	13	29	30	31	128
  187	3	125	30	31	32
  188	3	125	30	31	127
  189	3	125	30	31	128
  190	3	126	30	31	32
  191	3	126	30	31	127
  192	3	126	30	31	128
  193	2	30	31	32	33
  194	1	30	31	32	129
  195	1	30	31	32	130
  196	1	127	31	32	33
  197	14	127	31	32	129
  198	14	127	31	32	130
  199	1	128	31	32	33
  200	14	128	31	32	129
  201	14	128	31	32	130
  202	3	31	32	33	34
  203	3	31	32	33	131
  204	3	31	32	33	132
  205	13	129	32	33	34
  206	3	129	32	33	131
  207	3	129	32	33	132
  208	13	130	32	33	34
  209	3	130	32	33	131
  210	3	130	32	33	132
  211	15	32	33	34	35
  212	16	131	33	34	35
  213	16	132	33	34	35
  214	15	33	34	35	36
  215	16	33	34	35	133
  216	16	33	34	35	134
  217	3	34	35	36	37
  218	13	34	35	36	135
  219	13	34	35	36	136
  220	3	133	35	36	37
  221	3	133	35	36	135
  222	3	133	35	36	136
  223	3	134	35	36	37
  224	3	134	35	36	135
  225	3	134	35	36	136
  226	2	35	36	37	38
  227	1	35	36	37	137
  228	1	35	36	37	138
  229	1	135	36	37	38
  230	14	135	36	37	137
  231	14	135	36	37	138
  232	1	136	36	37	38
  233	14	136	36	37	137
  234	14	136	36	37	138
  235	3	36	37	38	39
  236	3	36	37	38	139
  237	3	36	37	38	140
  238	13	137	37	38	39
  239	3	137	37	38	139
  240	3	137	37	38	140
  241	13	138	37	38	39
  242	3	138	37	38	139
  243	3	138	37	38	140
  244	15	37	38	39	40
  245	16	139	38	39	40
  246	16	140	38	39	40
  247	15	38	39	40	41
  248	16	38	39	40	141
  249	16	38	39	40	142
  250	3	39	40	41	42
  251	13	39	40	41	143
  252	13	39	40	41	144
  253	3	141	40	41	42
  254	3	141	40	41	143
  255	3	141	40	41	144
  256	3	142	40	41	42
  257	3	142	40	41	143
  258	3	142	40	41	144
  259	2	40	41	42	43
  260	1	40	41	42	145
  261	1	40	41	42	146
  262	1	143	41	42	43
  263	14	143	41	42	145
  264	14	143	41	42	146
  265	1	144	41	42	43
  266	14	144	41	42	145
  267	14	144	41	42	146
  268	3	41	42	43	44
  269	3	41	42	43	147
  270	3	41	42	43	148
  271	13	145	42	43	44
  272	3	145	42	43	147
  273	3	145	42	43	148
  274	13	146	42	43	44
  275	3	146	42	43	147
  276	3	146	42	43	148
  277	15	42	43	44	45
  278	16	147	43	44	45
  279	16	148	43	44	45
  280	15	43	44	45	46
  281	16	43	44	45	149
  282	16	43	44	45	150
  283	3	44	45	46	47
  284	13	44	45	46	151
  285	13	44	45	46	152
  286	3	149	45	46	47
  287	3	149	45	46	151
  288	3	149	45	46	152
  289	3	150	45	46	47
  290	3	150	45	46	151
  291	3	150	45	46	152
  292	2	45	46	47	48
  293	1	45	46	47	153
  294	1	45	46	47	154
  295	1	151	46	47	48
  296	14	151	46	47	153
  297	14	151	46	47	154
  298	1	152	46	47	48
  299	14	152	46	47	153
  300	14	152	46	47	154
  301	3	46	47	48	49
  302	3	46	47	48	155
  303	3	46	47	48	156
  304	13	153	47	48	49
  305	3	153	47	48	155
  306	3	153	47	48	156
  307	13	154	47	48	49
  308	3	154	47	48	155
  309	3	154	47	48	156
  310	15	47	48	49	50
  311	16	155	48	49	50
  312	16	156	48	49	50
  313	15	48	49	50	51
  314	16	48	49	50	157
  315	16	48	49	50	158
  316	3	49	50	51	52
  317	13	49	50	51	159
  318	13	49	50	51	160
  319	3	157	50	51	52
  320	3	157	50	51	159
  321	3	157	50	51	160
  322	3	158	50	51	52
  323	3	158	50	51	159
  324	3	158	50	51	160
  325	2	50	51	52	53
  326	1	50	51	52	161
  327	1	50	51	52	162
  328	1	159	51	52	53
  329	14	159	51	52	161
  330	14	159	51	52	162
  331	1	160	51	52	53
  332	14	160	51	52	161
  333	14	160	51	52	162
  334	3	51	52	53	54
  335	3	51	52	53	163
  336	3	51	52	53	164
  337	13	161	52	53	54
  338	3	161	52	53	163
  339	3	161	52	53	164
  340	13	162	52	53	54
  341	3	162	52	53	163
  342	3	162	52	53	164
  343	11	52	53	54	55
  344	12	163	53	54	55
  345	12	164	53	54	55
  346	10	53	54	55	56
  347	9	53	54	55	57
  348	7	54	55	57	58
  349	7	54	55	57	165
  350	7	56	55	57	58
  351	8	56	55	57	165
  352	4	55	57	58	59
  353	6	55	57	58	166
  354	6	55	57	58	167
  355	5	165	57	58	59
  356	5	165	57	58	166
  357	5	165	57	58	167
  358	3	57	58	59	60
  359	3	57	58	59	61
  360	3	57	58	59	74
  361	3	166	58	59	60
  362	3	166	58	59	61
  363	3	166	58	59	74
  364	3	167	58	59	60
  365	3	167	58	59	61
  366	3	167	58	59	74
  367	1	58	59	60	168
  368	1	58	59	60	169
  369	1	58	59	60	170
  370	1	61	59	60	168
  371	1	61	59	60	169
  372	1	61	59	60	170
  373	1	74	59	60	168
  374	1	74	59	60	169
  375	1	74	59	60	170
  376	2	58	59	61	62
  377	1	58	59	61	171
  378	1	58	59	61	172
  379	2	60	59	61	62
  380	1	60	59	61	171
  381	1	60	59	61	172
  382	2	74	59	61	62
  383	1	74	59	61	171
  384	1	74	59	61	172
  385	3	59	61	62	63
  386	2	59	61	62	70
  387	3	59	61	62	173
  388	3	171	61	62	63
  389	1	171	61	62	70
  390	3	171	61	62	173
  391	3	172	61	62	63
  392	1	172	61	62	70
  393	3	172	61	62	173
  394	4	61	62	63	64
  395	5	61	62	63	174
  396	4	70	62	63	64
  397	5	70	62	63	174
  398	6	173	62	63	64
  399	5	173	62	63	174
  400	7	62	63	64	65
  401	7	62	63	64	66
  402	8	174	63	64	65
  403	7	174	63	64	66
  404	9	63	64	66	67
  405	10	65	64	66	67
  406	11	64	66	67	68
  407	12	64	66	67	175
  408	12	64	66	67	176
  409	17	66	67	68	69
  410	18	66	67	68	177
  411	18	66	67	68	178
  412	19	175	67	68	69
  413	3	175	67	68	177
  414	3	175	67	68	178
  415	19	176	67	68	69
  416	3	176	67	68	177
  417	3	176	67	68	178
  418	20	67	68	69	179
  419	21	177	68	69	179
  420	21	178	68	69	179
  421	2	61	62	70	71
  422	1	61	62	70	180
  423	1	61	62	70	181
  424	3	63	62	70	71
  425	3	63	62	70	180
  426	3	63	62	70	181
  427	3	173	62	70	71
  428	3	173	62	70	180
  429	3	173	62	70	181
  430	2	62	70	71	72
  431	2	62	70	71	73
  432	2	62	70	71	74
  433	1	180	70	71	72
  434	1	180	70	71	73
  435	1	180	70	71	74
  436	1	181	70	71	72
  437	1	181	70	71	73
  438	1	181	70	71	74
  439	1	70	71	72	182
  440	1	70	71	72	183
  441	1	70	71	72	184
  442	1	73	71	72	182
  443	1	73	71	72	183
  444	1	73	71	72	184
  445	1	74	71	72	182
  446	1	74	71	72	183
  447	1	74	71	72	184
  448	1	70	71	73	185
  449	1	70	71	73	186
  450	1	70	71	73	187
  451	1	72	71	73	185
  452	1	72	71	73	186
  453	1	72	71	73	187
  454	1	74	71	73	185
  455	1	74	71	73	186
  456	1	74	71	73	187
  457	2	70	71	74	59
  458	1	70	71	74	188
  459	1	70	71	74	189
  460	2	72	71	74	59
  461	1	72	71	74	188
  462	1	72	71	74	189
  463	2	73	71	74	59
  464	1	73	71	74	188
  465	1	73	71	74	189
  466	2	4	5	75	76
  467	1	4	5	75	190
  468	1	4	5	75	191
  469	3	6	5	75	76
  470	3	6	5	75	190
  471	3	6	5	75	191
  472	3	91	5	75	76
  473	3	91	5	75	190
  474	3	91	5	75	191
  475	2	5	75	76	77
  476	2	5	75	76	78
  477	2	5	75	76	82
  478	1	190	75	76	77
  479	1	190	75	76	78
  480	1	190	75	76	82
  481	1	191	75	76	77
  482	1	191	75	76	78
  483	1	191	75	76	82
  484	1	75	76	77	192
  485	1	75	76	77	193
  486	1	75	76	77	194
  487	1	78	76	77	192
  488	1	78	76	77	193
  489	1	78	76	77	194
  490	1	82	76	77	192
  491	1	82	76	77	193
  492	1	82	76	77	194
  493	3	75	76	78	79
  494	3	75	76	78	195
  495	3	75	76	78	196
  496	3	77	76	78	79
  497	3	77	76	78	195
  498	3	77	76	78	196
  499	3	82	76	78	79
  500	3	82	76	78	195
  501	3	82	76	78	196
  502	22	76	78	79	80
  503	22	195	78	79	80
  504	22	196	78	79	80
  505	23	78	79	80	81
  506	2	75	76	82	2
  507	1	75	76	82	197
  508	1	75	76	82	198
  509	2	77	76	82	2
  510	1	77	76	82	197
  511	1	77	76	82	198
  512	2	78	76	82	2
  513	1	78	76	82	197
  514	1	78	76	82	198
  515	2	76	82	2	1
  516	2	76	82	2	3
  517	2	76	82	2	4
  518	1	197	82	2	1
  519	1	197	82	2	3
  520	1	197	82	2	4
  521	1	198	82	2	1
  522	1	198	82	2	3
  523	1	198	82	2	4
  524	2	71	74	59	58
  525	2	71	74	59	60
  526	2	71	74	59	61
  527	1	188	74	59	58
  528	1	188	74	59	60
  529	1	188	74	59	61
  530	1	189	74	59	58
  531	1	189	74	59	60
  532	1	189	74	59	61
  533	1	281	199	200	201
  534	1	281	199	200	202
  535	1	281	199	200	280
  536	1	282	199	200	201
  537	1	282	199	200	202
  538	1	282	199	200	280
  539	1	283	199	200	201
  540	1	283	199	200	202
  541	1	283	199	200	280
  542	1	199	200	201	284
  543	1	199	200	201	285
  544	1	199	200	201	286
  545	1	202	200	201	284
  546	1	202	200	201	285
  547	1	202	200	201	286
  548	1	280	200	201	284
  549	1	280	200	201	285
  550	1	280	200	201	286
  551	2	199	200	202	203
  552	1	199	200	202	287
  553	1	199	200	202	288
  554	2	201	200	202	203
  555	1	201	200	202	287
  556	1	201	200	202	288
  557	2	280	200	202	203
  558	1	280	200	202	287
  559	1	280	200	202	288
  560	3	200	202	203	204
  561	2	200	202	203	273
  562	3	200	202	203	289
  563	3	287	202	203	204
  564	1	287	202	203	273
  565	3	287	202	203	289
  566	3	288	202	203	204
  567	1	288	202	203	273
  568	3	288	202	203	289
  569	4	202	203	204	205
  570	5	202	203	204	290
  571	4	273	203	204	205
  572	5	273	203	204	290
  573	6	289	203	204	205
  574	5	289	203	204	290
  575	7	203	204	205	206
  576	7	203	204	205	207
  577	8	290	204	205	206
  578	7	290	204	205	207
  579	9	204	205	207	208
  580	10	206	205	207	208
  581	11	205	207	208	209
  582	12	205	207	208	291
  583	12	205	207	208	292
  584	3	207	208	209	210
  585	13	207	208	209	293
  586	13	207	208	209	294
  587	3	291	208	209	210
  588	3	291	208	209	293
  589	3	291	208	209	294
  590	3	292	208	209	210
  591	3	292	208	209	293
  592	3	292	208	209	294
  593	2	208	209	210	211
  594	1	208	209	210	295
  595	1	208	209	210	296
  596	1	293	209	210	211
  597	14	293	209	210	295
  598	14	293	209	210	296
  599	1	294	209	210	211
  600	14	294	209	210	295
  601	14	294	209	210	296
  602	3	209	210	211	212
  603	3	209	210	211	297
  604	3	209	210	211	298
  605	13	295	210	211	212
  606	3	295	210	211	297
  607	3	295	210	211	298
  608	13	296	210	211	212
  609	3	296	210	211	297
  610	3	296	210	211	298
  611	15	210	211	212	213
  612	16	297	211	212	213
  613	16	298	211	212	213
  614	15	211	212	213	214
  615	16	211	212	213	299
  616	16	211	212	213	300
  617	3	212	213	214	215
  618	13	212	213	214	301
  619	13	212	213	214	302
  620	3	299	213	214	215
  621	3	299	213	214	301
  622	3	299	213	214	302
  623	3	300	213	214	215
  624	3	300	213	214	301
  625	3	300	213	214	302
  626	2	213	214	215	216
  627	1	213	214	215	303
  628	1	213	214	215	304
  629	1	301	214	215	216
  630	14	301	214	215	303
  631	14	301	214	215	304
  632	1	302	214	215	216
  633	14	302	214	215	303
  634	14	302	214	215	304
  635	3	214	215	216	217
  636	3	214	215	216	305
  637	3	214	215	216	306
  638	13	303	215	216	217
  639	3	303	215	216	305
  640	3	303	215	216	306
  641	13	304	215	216	217
  642	3	304	215	216	305
  643	3	304	215	216	306
  644	15	215	216	217	218
  645	16	305	216	217	218
  646	16	306	216	217	218
  647	15	216	217	218	219
  648	16	216	217	218	307
  649	16	216	217	218	308
  650	3	217	218	219	220
  651	13	217	218	219	309
  652	13	217	218	219	310
  653	3	307	218	219	220
  654	3	307	218	219	309
  655	3	307	218	219	310
  656	3	308	218	219	220
  657	3	308	218	219	309
  658	3	308	218	219	310
  659	2	218	219	220	221
  660	1	218	219	220	311
  661	1	218	219	220	312
  662	1	309	219	220	221
  663	14	309	219	220	311
  664	14	309	219	220	312
  665	1	310	219	220	221
  666	14	310	219	220	311
  667	14	310	219	220	312
  668	3	219	220	221	222
  669	3	219	220	221	313
  670	3	219	220	221	314
  671	13	311	220	221	222
  672	3	311	220	221	313
  673	3	311	220	221	314
  674	13	312	220	221	222
  675	3	312	220	221	313
  676	3	312	220	221	314
  677	15	220	221	222	223
  678	16	313	221	222	223
  679	16	314	221	222	223
  680	15	221	222	223	224
  681	16	221	222	223	315
  682	16	221	222	223	316
  683	3	222	223	224	225
  684	13	222	223	224	317
  685	13	222	223	224	318
  686	3	315	223	224	225
  687	3	315	223	224	317
  688	3	315	223	224	318
  689	3	316	223	224	225
  690	3	316	223	224	317
  691	3	316	223	224	318
  692	2	223	224	225	226
  693	1	223	224	225	319
  694	1	223	224	225	320
  695	1	317	224	225	226
  696	14	317	224	225	319
  697	14	317	224	225	320
  698	1	318	224	225	226
  699	14	318	224	225	319
  700	14	318	224	225	320
  701	3	224	225	226	227
  702	3	224	225	226	321
  703	3	224	225	226	322
  704	13	319	225	226	227
  705	3	319	225	226	321
  706	3	319	225	226	322
  707	13	320	225	226	227
  708	3	320	225	226	321
  709	3	320	225	226	322
  710	15	225	226	227	228
  711	16	321	226	227	228
  712	16	322	226	227	228
  713	15	226	227	228	229
  714	16	226	227	228	323
  715	16	226	227	228	324
  716	3	227	228	229	230
  717	13	227	228	229	325
  718	13	227	228	229	326
  719	3	323	228	229	230
  720	3	323	228	229	325
  721	3	323	228	229	326
  722	3	324	228	229	230
  723	3	324	228	229	325
  724	3	324	228	229	326
  725	2	228	229	230	231
  726	1	228	229	230	327
  727	1	228	229	230	328
  728	1	325	229	230	231
  729	14	325	229	230	327
  730	14	325	229	230	328
  731	1	326	229	230	231
  732	14	326	229	230	327
  733	14	326	229	230	328
  734	3	229	230	231	232
  735	3	229	230	231	329
  736	3	229	230	231	330
  737	13	327	230	231	232
  738	3	327	230	231	329
  739	3	327	230	231	330
  740	13	328	230	231	232
  741	3	328	230	231	329
  742	3	328	230	231	330
  743	15	230	231	232	233
  744	16	329	231	232	233
  745	16	330	231	232	233
  746	15	231	232	233	234
  747	16	231	232	233	331
  748	16	231	232	233	332
  749	3	232	233	234	235
  750	13	232	233	234	333
  751	13	232	233	234	334
  752	3	331	233	234	235
  753	3	331	233	234	333
  754	3	331	233	234	334
  755	3	332	233	234	235
  756	3	332	233	234	333
  757	3	332	233	234	334
  758	2	233	234	235	236
  759	1	233	234	235	335
  760	1	233	234	235	336
  761	1	333	234	235	236
  762	14	333	234	235	335
  763	14	333	234	235	336
  764	1	334	234	235	236
  765	14	334	234	235	335
  766	14	334	234	235	336
  767	3	234	235	236	237
  768	3	234	235	236	337
  769	3	234	235	236	338
  770	13	335	235	236	237
  771	3	335	235	236	337
  772	3	335	235	236	338
  773	13	336	235	236	237
  774	3	336	235	236	337
  775	3	336	235	236	338
  776	15	235	236	237	238
  777	16	337	236	237	238
  778	16	338	236	237	238
  779	15	236	237	238	239
  780	16	236	237	238	339
  781	16	236	237	238	340
  782	3	237	238	239	240
  783	13	237	238	239	341
  784	13	237	238	239	342
  785	3	339	238	239	240
  786	3	339	238	239	341
  787	3	339	238	239	342
  788	3	340	238	239	240
  789	3	340	238	239	341
  790	3	340	238	239	342
  791	2	238	239	240	241
  792	1	238	239	240	343
  793	1	238	239	240	344
  794	1	341	239	240	241
  795	14	341	239	240	343
  796	14	341	239	240	344
  797	1	342	239	240	241
  798	14	342	239	240	343
  799	14	342	239	240	344
  800	3	239	240	241	242
  801	3	239	240	241	345
  802	3	239	240	241	346
  803	13	343	240	241	242
  804	3	343	240	241	345
  805	3	343	240	241	346
  806	13	344	240	241	242
  807	3	344	240	241	345
  808	3	344	240	241	346
  809	15	240	241	242	243
  810	16	345	241	242	243
  811	16	346	241	242	243
  812	15	241	242	243	244
  813	16	241	242	243	347
  814	16	241	242	243	348
  815	3	242	243	244	245
  816	13	242	243	244	349
  817	13	242	243	244	350
  818	3	347	243	244	245
  819	3	347	243	244	349
  820	3	347	243	244	350
  821	3	348	243	244	245
  822	3	348	243	244	349
  823	3	348	243	244	350
  824	2	243	244	245	246
  825	1	243	244	245	351
  826	1	243	244	245	352
  827	1	349	244	245	246
  828	14	349	244	245	351
  829	14	349	244	245	352
  830	1	350	244	245	246
  831	14	350	244	245	351
  832	14	350	244	245	352
  833	3	244	245	246	247
  834	3	244	245	246	353
  835	3	244	245	246	354
  836	13	351	245	246	247
  837	3	351	245	246	353
  838	3	351	245	246	354
  839	13	352	245	246	247
  840	3	352	245	246	353
  841	3	352	245	246	354
  842	15	245	246	247	248
  843	16	353	246	247	248
  844	16	354	246	247	248
  845	15	246	247	248	249
  846	16	246	247	248	355
  847	16	246	247	248	356
  848	3	247	248	249	250
  849	13	247	248	249	357
  850	13	247	248	249	358
  851	3	355	248	249	250
  852	3	355	248	249	357
  853	3	355	248	249	358
  854	3	356	248	249	250
  855	3	356	248	249	357
  856	3	356	248	249	358
  857	2	248	249	250	251
  858	1	248	249	250	359
  859	1	248	249	250	360
  860	1	357	249	250	251
  861	14	357	249	250	359
  862	14	357	249	250	360
  863	1	358	249	250	251
  864	14	358	249	250	359
  865	14	358	249	250	360
  866	3	249	250	251	252
  867	3	249	250	251	361
  868	3	249	250	251	362
  869	13	359	250	251	252
  870	3	359	250	251	361
  871	3	359	250	251	362
  872	13	360	250	251	252
  873	3	360	250	251	361
  874	3	360	250	251	362
  875	11	250	251	252	253
  876	12	361	251	252	253
  877	12	362	251	252	253
  878	10	251	252	253	254
  879	9	251	252	253	255
  880	7	252	253	255	256
  881	7	252	253	255	363
  882	7	254	253	255	256
  883	8	254	253	255	363
  884	4	253	255	256	257
  885	6	253	255	256	364
  886	6	253	255	256	365
  887	5	363	255	256	257
  888	5	363	255	256	364
  889	5	363	255	256	365
  890	3	255	256	257	258
  891	3	255	256	257	259
  892	3	255	256	257	272
  893	3	364	256	257	258
  894	3	364	256	257	259
  895	3	364	256	257	272
  896	3	365	256	257	258
  897	3	365	256	257	259
  898	3	365	256	257	272
  899	1	256	257	258	366
  900	1	256	257	258	367
  901	1	256	257	258	368
  902	1	259	257	258	366
  903	1	259	257	258	367
  904	1	259	257	258	368
  905	1	272	257	258	366
  906	1	272	257	258	367
  907	1	272	257	258	368
  908	2	256	257	259	260
  909	1	256	257	259	369
  910	1	256	257	259	370
  911	2	258	257	259	260
  912	1	258	257	259	369
  913	1	258	257	259	370
  914	2	272	257	259	260
  915	1	272	257	259	369
  916	1	272	257	259	370
  917	3	257	259	260	261
  918	2	257	259	260	268
  919	3	257	259	260	371
  920	3	369	259	260	261
  921	1	369	259	260	268
  922	3	369	259	260	371
  923	3	370	259	260	261
  924	1	370	259	260	268
  925	3	370	259	260	371
  926	4	259	260	261	262
  927	5	259	260	261	372
  928	4	268	260	261	262
  929	5	268	260	261	372
  930	6	371	260	261	262
  931	5	371	260	261	372
  932	7	260	261	262	263
  933	7	260	261	262	264
  934	8	372	261	262	263
  935	7	372	261	262	264
  936	9	261	262	264	265
  937	10	263	262	264	265
  938	11	262	264	265	266
  939	12	262	264	265	373
  940	12	262	264	265	374
  941	17	264	265	266	267
  942	18	264	265	266	375
  943	18	264	265	266	376
  944	19	373	265	266	267
  945	3	373	265	266	375
  946	3	373	265	266	376
  947	19	374	265	266	267
  948	3	374	265	266	375
  949	3	374	265	266	376
  950	20	265	266	267	377
  951	21	375	266	267	377
  952	21	376	266	267	377
  953	2	259	260	268	269
  954	1	259	260	268	378
  955	1	259	260	268	379
  956	3	261	260	268	269
  957	3	261	260	268	378
  958	3	261	260	268	379
  959	3	371	260	268	269
  960	3	371	260	268	378
  961	3	371	260	268	379
  962	2	260	268	269	270
  963	2	260	268	269	271
  964	2	260	268	269	272
  965	1	378	268	269	270
  966	1	378	268	269	271
  967	1	378	268	269	272
  968	1	379	268	269	270
  969	1	379	268	269	271
  970	1	379	268	269	272
  971	1	268	269	270	380
  972	1	268	269	270	381
  973	1	268	269	270	382
  974	1	271	269	270	380
  975	1	271	269	270	381
  976	1	271	269	270	382
  977	1	272	269	270	380
  978	1	272	269	270	381
  979	1	272	269	270	382
  980	1	268	269	271	383
  981	1	268	269	271	384
  982	1	268	269	271	385
  983	1	270	269	271	383
  984	1	270	269	271	384
  985	1	270	269	271	385
  986	1	272	269	271	383
  987	1	272	269	271	384
  988	1	272	269	271	385
  989	2	268	269	272	257
  990	1	268	269	272	386
  991	1	268	269	272	387
  992	2	270	269	272	257
  993	1	270	269	272	386
  994	1	270	269	272	387
  995	2	271	269	272	257
  996	1	271	269	272	386
  997	1	271	269	272	387
  998	2	202	203	273	274
  999	1	202	203	273	388
 1000	1	202	203	273	389
 1001	3	204	203	273	274
 1002	3	204	203	273	388
 1003	3	204	203	273	389
 1004	3	289	203	273	274
 1005	3	289	203	273	388
 1006	3	289	203	273	389
 1007	2	203	273	274	275
 1008	2	203	273	274	276
 1009	2	203	273	274	280
 1010	1	388	273	274	275
 1011	1	388	273	274	276
 1012	1	388	273	274	280
 1013	1	389	273	274	275
 1014	1	389	273	274	276
 1015	1	389	273	274	280
 1016	1	273	274	275	390
 1017	1	273	274	275	391
 1018	1	273	274	275	392
 1019	1	276	274	275	390
 1020	1	276	274	275	391
 1021	1	276	274	275	392
 1022	1	280	274	275	390
 1023	1	280	274	275	391
 1024	1	280	274	275	392
 1025	3	273	274	276	277
 1026	3	273	274	276	393
 1027	3	273	274	276	394
 1028	3	275	274	276	277
 1029	3	275	274	276	393
 1030	3	275	274	276	394
 1031	3	280	274	276	277
 1032	3	280	274	276	393
 1033	3	280	274	276	394
 1034	22	274	276	277	278
 1035	22	393	276	277	278
 1036	22	394	276	277	278
 1037	23	276	277	278	279
 1038	2	273	274	280	200
 1039	1	273	274	280	395
 1040	1	273	274	280	396
 1041	2	275	274	280	200
 1042	1	275	274	280	395
 1043	1	275	274	280	396
 1044	2	276	274	280	200
 1045	1	276	274	280	395
 1046	1	276	274	280	396
 1047	2	274	280	200	199
 1048	2	274	280	200	201
 1049	2	274	280	200	202
 1050	1	395	280	200	199
 1051	1	395	280	200	201
 1052	1	395	280	200	202
 1053	1	396	280	200	199
 1054	1	396	280	200	201
 1055	1	396	280	200	202
 1056	2	269	272	257	256
 1057	2	269	272	257	258
 1058	2	269	272	257	259
 1059	1	386	272	257	256
 1060	1	386	272	257	258
 1061	1	386	272	257	259
 1062	1	387	272	257	256
 1063	1	387	272	257	258
 1064	1	387	272	257	259

Impropers

    1	1	6	5	7	92
    2	2	7	6	9	8
    3	2	55	54	57	56
    4	3	57	55	58	165
    5	1	63	62	64	174
    6	2	64	63	66	65
    7	1	204	203	205	290
    8	2	205	204	207	206
    9	2	253	252	255	254
   10	3	255	253	256	363
   11	1	261	260	262	372
   12	2	262	261	264	263
