LAMMPS data file via write_data, version 22 Jul 2025, timestep = 2000, units = real

396 atoms
12 atom types
398 bonds
14 bond types
760 angles
24 angle types
1064 dihedrals
23 dihedral types
12 impropers
3 improper types

-13.45537432368225 13.45537432368225 xlo xhi
-13.45537432368225 13.45537432368225 ylo yhi
-13.45537432368225 13.45537432368225 zlo zhi

Masses

1 12.011
2 14.007
3 12.011
4 15.999
5 15.999
6 15.999
7 14.007
8 12.011
9 1.008
10 1.008
11 1.008
12 1.008

Pair Coeffs # lj/charmm/coul/long

1 0.1078 3.39771 0.1078 3.39771
2 0.1174 3.26995 0.1174 3.26995
3 0.0988 3.31521 0.0988 3.31521
4 0.1463 3.04812 0.1463 3.04812
5 0.0726 3.1561 0.0726 3.1561
6 0.093 3.24287 0.093 3.24287
7 0.0941 3.38417 0.0941 3.38417
8 0.1596 3.47896 0.1596 3.47896
9 0.0208 2.60018 0.0208 2.60018
10 0.0208 2.422 0.0208 2.422
11 0.01 1.1065 0.01 1.1065
12 0.0047 0.537925 0.0047 0.537925

Bond Coeffs # harmonic

1 232.52 1.538
2 263.77 1.462
3 356.21 1.379
4 652.57 1.218
5 372.94 1.358
6 284.76 1.432
7 293.4 1.423
8 259.91 1.466
9 736.75 1.197
10 794.98 1.172
11 375.92 1.097
12 375.92 1.097
13 527.31 1.013
14 563.51 0.973

Angle Coeffs # harmonic

1 46.816 109.8
2 38.96 107.58
3 64.888 111.51
4 83.161 111.61
5 46.868 109.56
6 61.544 108.88
7 65.252 120.69
8 46.147 117.68
9 48.691 117.55
10 113.811 123.05
11 115.486 109.22
12 114.822 123.25
13 66.906 115.98
14 85.306 107.97
15 62.377 109.78
16 38.802 108.46
17 66.293 112.48
18 84.642 110.19
19 62.54 110.26
20 49.027 107.26
21 84.123 108.8
22 61.133 109.81
23 60.897 151.88
24 106.076 172.73

Dihedral Coeffs # fourier

1 2 0.08 3 0 0.08 3 0
2 3 0.13 3 0 0.29 2 180 0.11 1 0
3 1 0.155556 3 0
4 6 0.1 4 180 0.17 3 0 1.02 1 180 0.65 4 180 0.03 3 180 2.26 1 0
5 1 0 2 0
6 1 0 2 180
7 1 2.5 2 180
8 2 2.5 2 180 2 1 0
9 1 2.7 2 180
10 2 2.7 2 180 1.4 1 180
11 2 0.383 3 0 0.8 1 180
12 1 0.383333 3 0
13 2 0 3 0 0.25 1 0
14 1 0.12 3 0
15 5 0.24 3 0 0.16 2 0 0.91 3 0 1 2 0 0 1 0
16 1 0.337 3 0
17 3 1.01 3 0 0 2 0 0.02 1 180
18 2 0 3 0 0.25 1 0
19 2 0 3 0 0.25 1 0
20 1 0 3 0
21 1 0.113 3 0
22 1 0 3 0
23 1 0 2 180

Improper Coeffs # cvff

1 1.1 -1 2
2 10.5 -1 2
3 1.1 -1 2

Atoms # full

68 1 1 0.07742392911661945 -4.7702600646451465 -5.774658630574789 -6.624550176987113 0 0 0
67 1 1 0.116243556457309 -4.583334324642921 -4.759075753528973 -5.460918373886257 0 0 0
178 1 10 0.05999075500253898 -5.8322238512707125 -5.6993165395525605 -6.921940898046159 0 0 0
179 1 12 0.2102134954815084 -5.019933108731343 -7.305360226028692 -5.622623637670337 0 0 0
148 1 10 0.05665597941619162 -5.229325278171768 -9.961432461081166 -5.536184485118127 0 0 0
149 1 10 0.05665597941619162 -7.082936009909318 -8.730056236381794 -5.944744178369665 0 0 0
45 1 1 0.04663816984984175 -7.338742280865924 -8.910231336325081 -4.865638323878483 0 0 0
150 1 10 0.05665597941619162 -7.935225051194128 -9.858792984794153 -4.7596620474175255 0 0 0
152 1 9 0.02909435016988921 -9.023995292078796 -7.5074027051814545 -5.039349910794929 0 0 0
177 1 10 0.05999075500253898 -4.360966213552102 -5.465907455725238 -7.584954104826357 0 0 0
69 1 6 -0.3928311477620106 -4.388542714078137 -7.12161603337822 -6.317368619059442 0 0 0
175 1 10 0.07323470712452268 -3.525380318579347 -4.720682975007093 -5.08896150616823 0 0 0
254 2 4 -0.2246072883503104 -3.5164614485900336 -5.522142723099727 -10.263250771305643 0 1 0
250 2 1 -0.01636798477393092 -2.388023738948675 -5.624977474026889 -13.308574184800769 0 1 0
253 2 3 0.4066437385015225 -2.379935586346836 -5.155261352566969 -10.299672449794471 0 1 0
360 2 9 0.03022621956258014 -3.0210549873313806 -6.4221146620748355 -12.886130805692252 0 1 0
246 2 1 0.04663817775707114 2.5155186878149047 -6.313088705892312 -12.37216635570038 0 1 0
247 2 5 -0.3814486322076339 1.3247650344738369 -6.78042956609342 -12.987989729767005 0 1 0
248 2 1 0.04667935279418892 0.20073470723998213 -5.9972713975440675 -12.569044296214019 0 1 0
255 2 2 -0.320940554447436 -1.4417219481836419 -5.584207354260762 -9.322039306918388 0 1 0
256 2 1 0.02621561786896811 -1.7424056439441913 -6.605599639013685 -8.313791737877489 0 1 0
257 2 1 -0.01256064853337846 -1.124977860804468 -7.982770451851757 -8.641710306172135 0 1 0
259 2 1 -0.02549950565705704 0.3975886827884066 -7.816283271969618 -8.809432270921343 0 1 0
260 2 1 0.03323771189742473 1.2102154368701232 -9.070199453378885 -9.241893471452519 0 1 0
261 2 2 -0.3187174963718927 2.683854781858636 -8.764447628184286 -9.256626827185526 0 1 0
268 2 1 -0.02744511291384107 0.6666129424386971 -9.46561917386334 -10.680110779625679 0 1 0
269 2 1 -0.03288949744477357 -0.8978634492547113 -9.779992825782935 -10.681108500682583 0 1 0
271 2 1 -0.05981143615543522 -1.4615765922700747 -10.063953109425372 -12.129601799544671 0 1 0
272 2 1 -0.04084595482211462 -1.699826774082003 -8.607932378837688 -9.964364584560647 0 1 0
353 2 10 0.05665597944628357 2.4901576362371283 -6.515375300325846 -11.268493323085938 0 1 0
355 2 10 0.05665670390454288 -0.20928759301880195 -6.395915459545487 -11.56882043952222 0 1 0
363 2 11 0.1666063765487101 -0.43290250430436256 -5.264030379321868 -9.31732882231471 0 1 0
364 2 10 0.04981207680180026 -2.8221898795897067 -6.807537302347533 -8.345738681203382 0 1 0
365 2 10 0.04981207680180026 -1.4694037231816681 -6.332727117708921 -7.265239581559472 0 1 0
369 2 9 0.0293845102812146 0.747600144580955 -7.443161842069086 -7.854777984683872 0 1 0
370 2 9 0.0293845102812146 0.6520156504334514 -7.093355577436848 -9.57568495997109 0 1 0
372 2 11 0.1668741263330167 3.1382508472867094 -8.645846619477656 -10.16045254477126 0 1 0
378 2 9 0.0293074366750559 1.2279570897732215 -10.371197242672368 -10.776629353935082 0 1 0
379 2 9 0.0293074366750559 0.9502845858305505 -8.702606927154832 -11.423036827660196 0 1 0
385 2 9 0.02359313424410414 -1.2830761237915727 -9.204055393296532 -12.772024917609128 0 1 0
386 2 9 0.02782910018978014 -1.7248501908790463 -7.82062819904271 -10.769478621247632 0 1 0
387 2 9 0.02782910018978014 -2.706367080456498 -8.9567973818667 -9.756986501480355 0 1 0
352 2 9 0.02909435016994487 3.782225252902925 -7.9807001813676095 -12.340867359732062 0 1 0
258 2 1 -0.05785724888675247 -1.4386698439817476 -8.945874657418736 -7.482322735226363 0 1 0
262 2 3 0.4069273219729349 3.4180706801067045 -8.836404073728273 -8.09713760127343 0 1 0
366 2 9 0.02366929916629904 -1.1511858286908028 -8.484788608305404 -6.535045369066124 0 1 0
368 2 9 0.02366929916629904 -2.487325168521916 -9.042239178510751 -7.4520874772001005 0 1 0
263 2 4 -0.2245966571341527 2.9079663005132166 -8.959015982785532 -7.00208344470336 0 1 0
371 2 10 0.05298890732020456 1.0871334968161572 -9.877738906075631 -8.492744301378501 0 1 0
367 2 9 0.02366929916629904 -0.9374604644220369 -9.839370203124524 -7.620419318186453 0 1 0
270 2 1 -0.05981143615543522 -1.1842134754827647 -11.20665758066792 -10.038747618355513 0 1 0
384 2 9 0.02359313424410414 -2.5718500770718347 -10.279905558991977 -11.999511260993135 0 1 0
382 2 9 0.02359313424410414 -0.8327488366784435 -11.956157251598134 -10.772645471007442 0 1 0
380 2 9 0.02359313424410414 -2.255468447482472 -11.25582709555457 -9.840506088169004 0 1 0
381 2 9 0.02359313424410414 -0.5569509376508222 -11.32422000645619 -9.126745236068327 0 1 0
334 2 9 0.02909435016988916 1.9616408764006548 -11.97439289195858 -8.872259481428078 0 1 0
315 2 10 0.05665597941619162 -3.360254602690519 -13.393933227616424 -12.210696008139678 0 1 0
383 2 9 0.02359313424410414 -1.0893104875606354 -10.948768230452552 -12.649286463112556 0 1 0
329 2 10 0.05665597941619162 -1.9475174831427153 -13.110059377481607 -7.449567643508614 0 1 0
331 2 10 0.05665597941619162 0.46192747788176053 -12.017623202136862 -6.986186752650083 0 1 0
245 2 1 -0.0274141380091939 3.724340708344484 -7.082750189821619 -12.929203342831642 0 1 0
354 2 10 0.05665597944628357 2.6594283819275097 -5.253328994907929 -12.554416509989808 0 1 0
356 2 10 0.05665670390454288 0.39189828138689026 -4.878282880937858 -12.304015469180166 0 1 0
237 2 5 -0.3814493819627182 4.205224095013697 -12.610190648787448 -10.044907079508777 0 1 0
233 2 1 0.0466381698498417 0.8399387319968132 -12.999366488085093 -7.336257030794765 0 1 0
234 2 1 -0.02741413804064414 2.1839909138357676 -12.752195320043697 -8.076330460273383 0 1 0
333 2 9 0.02909435016988916 2.804677656919186 -12.329701686804198 -7.321459096354845 0 1 0
307 2 10 0.05665597941619162 2.9219685103151476 -12.990892976160952 -12.453735137369232 0 1 0
308 2 10 0.05665597941619162 1.324567685933165 -12.575363299981207 -13.186816069871313 0 1 0
218 2 1 0.0466381698498417 2.1236713289623657 -13.315600691049465 -13.151823285846698 0 1 0
349 2 9 0.02909435016988921 5.268638734042007 -6.10929719821148 -11.715766542941044 0 1 0
342 2 9 0.02909435016988916 4.946217262573564 -10.276190841216792 -11.079845828572783 0 1 0
341 2 9 0.02909435016988916 4.799556025716716 -11.364584219532448 -12.409977348279863 0 1 0
264 2 5 -0.4471136713933013 4.627649893790485 -8.53243859484891 -8.426968699823739 0 1 0
244 2 1 -0.02741413804058574 5.053489451183872 -6.316089025543379 -12.7417325703578 0 1 0
350 2 9 0.02909435016988921 5.06171352900522 -5.321398505484232 -13.10146347857022 0 1 0
239 2 1 -0.02741413804064414 5.385746531336361 -11.100996624088312 -11.555782868815186 0 1 0
238 2 1 0.0466381698498417 5.502275121997973 -12.371851718974261 -10.579236328337204 0 1 0
242 2 5 -0.3814493819627182 6.4769526463234985 -8.216026248426004 -12.395769671683622 0 1 0
374 2 10 0.07323470712452268 5.469472067877977 -7.394002511194908 -6.786961960706913 0 1 0
340 2 10 0.05665597941619162 6.2074790541339215 -12.097071041773011 -9.770053332725816 0 1 0
339 2 10 0.05665597941619162 5.905615570847322 -13.247052445429675 -11.09218999270358 0 1 0
265 2 1 0.116243556457309 5.605816315848754 -8.309175188027346 -7.3996071893588615 0 1 0
373 2 10 0.07323470712452268 5.8112484270811064 -9.246233933303346 -6.820056794040195 0 1 0
266 2 1 0.07742392911661945 6.902493014986164 -8.069966132464332 -8.204714672989619 0 1 0
267 2 6 -0.3928311477620106 7.200176499494515 -9.145989041425024 -9.063863053844425 0 1 0
347 2 10 0.05665597941619162 7.135141530918999 -6.429859702863712 -13.346068256649275 0 1 0
376 2 10 0.05999075500253898 6.731722761758117 -7.1714415985986735 -8.768920393945887 0 1 0
377 2 12 0.2102134954815084 6.5276090292762925 -9.234045000399673 -9.768589965758542 0 1 0
375 2 10 0.05999075500253898 7.72029637606052 -7.854922621787265 -7.56116296684986 0 1 0
241 2 1 0.0466381698498417 6.759994789989774 -9.50485910615082 -13.131771093684955 0 1 0
240 2 1 -0.02741413804064414 6.779701872105202 -10.684296193191823 -12.213215390130367 0 1 0
343 2 9 0.02909435016988916 7.535701359187149 -10.604312958269425 -11.388244978372871 0 1 0
344 2 9 0.02909435016988916 7.110036252744956 -11.465927546072688 -12.863727068535196 0 1 0
243 2 1 0.04663816984984175 6.237100327717108 -7.076265464502796 -13.287468141650052 0 1 0
176 1 10 0.07323470712452268 -4.910227834997726 -3.77546088792451 -5.873188971038376 0 0 0
252 2 5 -0.4495627555357394 -1.7729685716993646 -4.452026789696966 -11.188958659563374 0 1 0
362 2 10 0.07075135451391448 -3.344306572407187 -3.8917539857734873 -12.493979160716119 0 1 0
251 2 1 0.09326829739339267 -2.3029647011591443 -4.264706868137335 -12.492549341094247 0 1 0
361 2 10 0.07075135451391448 -1.6544186058381334 -3.549514598396199 -13.023455567188801 0 1 0
323 2 10 0.05665597941619162 -5.346891019915102 11.021437008820998 -9.297988764754553 0 0 0
321 2 10 0.05665597941619162 -6.083641912701403 11.004764972337865 -11.706677211558947 0 0 0
226 2 1 0.0466381698498417 -5.085120782919456 10.77049609544593 -11.824780140968022 0 0 0
322 2 10 0.05665597941619162 -4.964144334107081 9.723709225961013 -11.571872877928126 0 0 0
225 2 1 -0.02741413804064414 -4.547010026943108 10.999233363835897 -13.321816511735731 0 0 0
318 2 9 0.02909435016988916 -5.513754853538699 12.967901447998134 -13.390972436534636 0 0 0
325 2 9 0.02909435016988916 -4.117548682129532 13.15272907218427 -8.963452701141014 0 0 0
223 2 1 0.0466381698498417 -3.352701799658915 13.332645025814266 -13.352805681267917 0 0 0
228 2 1 0.0466381698498417 -4.338817248196175 11.168340958408411 -9.605106436552807 0 0 0
324 2 10 0.05665597941619162 -3.7655550084025595 10.231118414472029 -9.510236993952859 0 0 0
227 2 5 -0.3814493819627182 -4.27839379805588 11.574897882130957 -10.989083618650856 0 0 0
326 2 9 0.02909435016988916 -4.0057196666537465 12.033083483024285 -7.553183159925829 0 0 0
229 2 1 -0.02741413804064414 -3.6990204151003403 12.175989808919233 -8.629135686679588 0 0 0
328 2 9 0.02909435016988916 -1.8337588745806377 11.042146934624043 -8.661837712276434 0 0 0
230 2 1 -0.02741413804064414 -2.1532962090659593 12.09754832605165 -8.71604985682454 0 0 0
231 2 1 0.0466381698498417 -1.4406186464103785 12.83563904234549 -7.597125090693675 0 0 0
232 2 5 -0.3814493819627182 -0.1353506059912793 13.172246465904559 -8.064395238680522 0 0 0
235 2 1 -0.02741413804064414 2.8485751174530822 12.869994503487755 -8.620146145326226 0 0 0
236 2 1 0.0466381698498417 4.256589536964068 13.252050508629567 -9.108229139082384 0 0 0
327 2 9 0.02909435016988916 -1.7885875648562308 12.42927719893192 -9.662862222279525 0 0 0
330 2 10 0.05665597941619162 -1.4538055733494801 12.27851501030362 -6.602221292018645 0 0 0
332 2 10 0.05665597941619162 1.205241038496345 13.334255577590993 -6.465268763106742 0 0 0
335 2 9 0.02909435016988916 2.1840130959890067 12.360524034773977 -9.319254131250394 0 0 0
336 2 9 0.02909435016988916 2.8820708828610955 12.221886179951738 -7.724253875643566 0 0 0
314 2 10 0.05665597941619162 -1.054061300943229 13.095477482709994 -12.08357250895214 0 0 0
310 2 9 0.02909435016988916 1.1783692623317032 12.074324808725532 -11.688845022434771 0 0 0
221 2 1 0.0466381698498417 -0.9412125499940849 13.043670391033345 -13.14701476547091 0 0 0
219 2 1 -0.02741413804064414 1.4649141209562035 12.1947444677412 -12.737035513786383 0 0 0
309 2 9 0.02909435016988916 2.1381355551209333 11.344643113765827 -13.026184273407402 0 0 0
319 2 9 0.02909435016988916 -3.539360983515838 10.620651298135837 -13.409480509732346 0 0 0
311 2 9 0.02909435016988916 -0.24635898253587427 10.919210963437562 -13.187742124482838 0 0 0
337 2 10 0.05665597941619162 4.962821557482956 13.444936660044148 -8.293423699016147 0 0 0
338 2 10 0.05665597941619162 4.705504026334115 12.414923778143304 -9.633167875434237 0 0 0
43 1 1 0.0466381698498417 -5.35825558065515 -10.090267592374754 -4.4414081295482095 0 0 0
44 1 5 -0.3814493819627182 -6.174126369185907 -8.99387512855822 -4.080141667304164 0 0 0
63 1 2 -0.3187174963718927 -6.053494226160213 -4.862751745884673 -2.2500252473381344 0 0 0
66 1 5 -0.4471136713933013 -5.39490899454912 -5.133779772126378 -4.367385594266093 0 0 0
70 1 1 -0.02744511291384107 -6.493094455887752 -5.432571273852537 0.06003141992378733 0 0 0
104 1 9 0.02909435016994487 -8.968170728935743 -9.112283014318079 0.6575684227696299 0 0 0
107 1 10 0.05665597941619162 -6.20429453583529 -9.664157167800042 1.1837910706559396 0 0 0
147 1 10 0.05665597941619162 -5.757427953589727 -11.091156346937012 -4.212281348096802 0 0 0
154 1 9 0.02909435016994487 -7.946441644134921 -7.9902656491337 -2.1982057960892907 0 0 0
174 1 11 0.1668741263330167 -6.349999317046676 -5.809659327104584 -2.43615623346403 0 0 0
180 1 9 0.0293074366750559 -5.6618258118110285 -6.180262756363645 -0.11383863638469774 0 0 0
181 1 9 0.0293074366750559 -7.362343330338469 -5.988150063570201 -0.27052481143182194 0 0 0
47 1 1 -0.0274141380091939 -8.800003409098204 -7.839722640271135 -2.8962752575403554 0 0 0
71 1 1 -0.03288949744477357 -6.651122086558006 -5.069462131793951 1.5523225805924021 0 0 0
185 1 9 0.02359313424410414 -6.623150506443954 -7.089548536572461 2.276787903006038 0 0 0
18 1 1 0.04663816984984175 -6.452128031321808 -10.758627756814322 1.1954800762525646 0 0 0
105 1 9 0.02909435016988921 -8.167352459192443 -11.114430170161642 -0.14946380419586242 0 0 0
108 1 10 0.05665597941619162 -5.90851976876858 -11.267133990981181 0.3243186064934303 0 0 0
153 1 9 0.02909435016994487 -9.540505596741696 -8.679557070055887 -2.8518072985080445 0 0 0
73 1 1 -0.05981143615543522 -7.239080243461342 -6.240964155757495 2.3962779404221943 0 0 0
101 1 10 0.05665597944628357 -10.769765698152348 -11.132173106084366 0.7627477812745733 0 0 0
16 1 1 -0.0274141380091939 -8.997603309430158 -9.882971278309213 1.3823933395285761 0 0 0
17 1 1 -0.02741413804058574 -7.992319614552702 -11.052518828600835 0.9124780160594512 0 0 0
20 1 1 0.0466381698498417 -6.010276194046236 -10.601997449726555 3.5983635032072923 0 0 0
151 1 9 0.02909435016988921 -7.572012052185818 -6.813886140084619 -4.377024528562436 0 0 0
46 1 1 -0.02741413804058574 -8.193971572365397 -7.6958104211981775 -4.370914733217432 0 0 0
186 1 9 0.02359313424410414 -7.1832552634848215 -5.9646655105230835 3.431194755055405 0 0 0
187 1 9 0.02359313424410414 -8.249646971477318 -6.468727969430943 1.999062553780674 0 0 0
14 1 5 -0.3814486322076339 -11.321126038150298 -9.370133937908896 1.7038733351531794 0 0 0
15 1 1 0.04663817775707114 -10.449779562867558 -10.438031949341715 1.6012428908084706 0 0 0
100 1 10 0.05665670390454289 -13.071439971223896 -10.361537620080771 2.0364005075108014 0 0 0
99 1 10 0.05665670390454289 -13.171598294908492 -8.624998451657058 2.1086800198215525 0 0 0
13 1 1 0.04667935279419728 -12.602305239935388 -9.47068210685437 2.403812051316024 0 0 0
19 1 5 -0.3814493819627182 -6.088700045153523 -11.437681876101779 2.367544264154433 0 0 0
106 1 9 0.02909435016988921 -8.405868394404012 -12.021397028186566 1.2357853504363234 0 0 0
102 1 10 0.05665597944628357 -10.475436544384893 -10.934105250128793 2.5494078541091825 0 0 0
103 1 9 0.02909435016994487 -8.644385806807813 -9.499128953450166 2.3586191072782694 0 0 0
97 1 9 0.02913587251315736 -11.588988703042702 -10.193683422418072 4.2462927655403595 0 0 0
12 1 1 -0.02636427821821108 -12.324071288856057 -9.429630086408308 3.945513092722439 0 0 0
98 1 9 0.02913587251315736 -13.207444203898596 -9.59318790366503 4.471309081938181 0 0 0
155 1 10 0.05665597944628357 -8.959216123498024 -5.631382328117139 -2.390728842730248 0 0 0
48 1 1 0.04663817775707114 -9.616275578833326 -6.5443962889805745 -2.5298742457900127 0 0 0
49 1 5 -0.3814486322076339 -10.258169534569241 -6.831451575921672 -1.2804154319473202 0 0 0
94 1 10 0.0707513556374369 -9.859689674818219 -8.176930833457394 3.677593858051465 0 0 0
95 1 9 0.03022621956689231 -12.136660642461273 -7.206055439150615 3.9516840407010005 0 0 0
109 1 10 0.05665597941619162 -5.094815829564378 -9.974897449710413 3.7048816879698476 0 0 0
156 1 10 0.05665597944628357 -10.353472808760326 -6.34100348441726 -3.3272837743728623 0 0 0
50 1 1 0.04667935279418892 -10.937760821982623 -5.671843043969213 -0.7826819783533564 0 0 0
157 1 10 0.05665670390454288 -10.218264877634791 -5.006599426653075 -0.38318984255795957 0 0 0
51 1 1 -0.02636427822271796 -11.992407899953202 -6.1318686463727 0.2725292404978309 0 0 0
159 1 9 0.02913587251314939 -12.979720048052398 -6.1294727546636345 -0.1789843050922249 0 0 0
160 1 9 0.02913587251314939 -11.710317723893793 -7.063682334706319 0.762318605886669 0 0 0
184 1 9 0.02359313424410414 -4.601664771416074 -5.844302161408093 2.1040030227634436 0 0 0
72 1 1 -0.05981143615543522 -5.202623320474184 -4.936627091417556 2.1875642822645527 0 0 0
182 1 9 0.02359313424410414 -5.221389588847282 -4.651141402827775 3.2377936449400564 0 0 0
110 1 10 0.05665597941619162 -6.909370324865596 -9.911121168750974 3.6244850911996376 0 0 0
158 1 10 0.05665670390454288 -11.482918966277623 -5.26003082843488 -1.6828344481375033 0 0 0
52 1 1 -0.01636798477393092 -12.072882094688895 -5.148384154991991 1.4279931876895393 0 0 0
162 1 9 0.03022621956258014 -11.027094425769922 -5.050790946777628 1.867887501607673 0 0 0
161 1 9 0.03022621956258014 -12.70234481609016 -5.6844551638708145 2.187629146150715 0 0 0
145 1 9 0.02909435016988916 -3.6016580620291574 -8.882721730781391 -4.237901590141572 0 0 0
41 1 1 -0.02741413804064414 -3.75067891357647 -10.086220501362622 -2.301929658802427 0 0 0
42 1 1 -0.02741413804064414 -3.972497008121614 -9.87869891116436 -3.914908770648497 0 0 0
143 1 9 0.02909435016988916 -4.174826503480973 -11.133306917896842 -2.112755249906733 0 0 0
144 1 9 0.02909435016988916 -4.3671816707923385 -9.4354745625227 -1.6864860462091058 0 0 0
141 1 10 0.05665597941619162 -1.7187147301929304 -10.76876224519161 -2.656987620375564 0 0 0
146 1 9 0.02909435016988916 -3.33824971176075 -10.54617362395008 -4.464101743527564 0 0 0
39 1 5 -0.3814493819627182 -1.9434640792216964 -10.42788375424696 -0.6202445947960478 0 0 0
40 1 1 0.0466381698498417 -2.232584540108978 -10.070683633409635 -1.987331607508888 0 0 0
142 1 10 0.05665597941619162 -1.7640919767946162 -9.0711331467833 -2.160060501444963 0 0 0
38 1 1 0.0466381698498417 -2.0149240325219915 -11.771089849449101 -0.17907954087084876 0 0 0
139 1 10 0.05665597941619162 -1.6137761571947162 -12.438543317036897 -0.9088819143953356 0 0 0
140 1 10 0.05665597941619162 -3.1409671631083707 -11.9647340108589 -0.2089704188425164 0 0 0
37 1 1 -0.02741413804064414 -1.5413480996890472 -11.926305137546619 1.297834032373053 0 0 0
136 1 9 0.02909435016988916 0.2169206402567648 -10.809635461941205 1.1592287925260683 0 0 0
137 1 9 0.02909435016988916 -2.1114282698521003 -11.199408857635563 1.8691939601897998 0 0 0
36 1 1 -0.02741413804064414 -0.016983564599103884 -11.792809366456334 1.5441903265569494 0 0 0
135 1 9 0.02909435016988916 0.605306048436999 -12.472174045702376 0.9744593629128385 0 0 0
34 1 5 -0.3814493819627182 -0.3609544377175851 -10.609896489038173 3.649899206748297 0 0 0
35 1 1 0.0466381698498417 0.3643116739313801 -11.745569442995974 3.0269809998968573 0 0 0
133 1 10 0.05665597941619162 1.4040958247190631 -11.615094676502641 3.2017141792862414 0 0 0
134 1 10 0.05665597941619162 0.06081857379980627 -12.68911669838185 3.3884004843682183 0 0 0
138 1 9 0.02909435016988916 -1.8145927991878656 -12.933183232864057 1.6589810730485481 0 0 0
127 1 9 0.02909435016988916 -1.6977590032417171 -8.266686977877999 3.360439976569451 0 0 0
128 1 9 0.02909435016988916 -0.06800998697232831 -7.657388624648051 3.793413072030421 0 0 0
31 1 1 -0.02741413804064414 -1.0689656057374333 -7.829498416507808 4.21962627197451 0 0 0
125 1 10 0.05665597941619162 -2.2772189461705734 -6.19076293459747 3.6565907265823863 0 0 0
62 1 1 0.03323771189742473 -6.179312422719341 -4.2940556538889325 -0.9199811021572145 0 0 0
64 1 3 0.4069273219729349 -5.482257014553974 -4.252004537088987 -3.3134566182993344 0 0 0
65 1 4 -0.2245966571341527 -4.865577658460232 -3.2073755419913597 -3.303272798610209 0 0 0
173 1 10 0.05298890732020456 -5.1942698081687935 -3.9070679951331413 -0.646485356640791 0 0 0
183 1 9 0.02359313424410414 -4.7706767955034906 -4.102655599356905 1.6400801958720002 0 0 0
74 1 1 -0.04084595482211462 -7.534103757104754 -3.726929855511774 1.6674245942991712 0 0 0
172 1 9 0.0293845102812146 -8.223885705302239 -3.7216899633353706 -1.045175091332024 0 0 0
188 1 9 0.02782910018978014 -8.598388723750686 -4.099207925149391 1.575649017898105 0 0 0
61 1 1 -0.02549950565705704 -7.243707085390314 -3.2280067370900922 -0.8060686845686369 0 0 0
189 1 9 0.02782910018978014 -7.467530082677428 -3.3701510356957414 2.655116468981562 0 0 0
171 1 9 0.0293845102812146 -7.1008615196852585 -2.39660185846098 -1.5152927050681086 0 0 0
59 1 1 -0.01256064853337846 -7.310486611480173 -2.601491906326584 0.6472737575404816 0 0 0
53 1 1 0.09326829739339267 -12.826482943099672 -3.7805429716893473 1.2111057009916584 0 0 0
54 1 5 -0.4495627555357394 -11.85274960804488 -2.9457917743390003 0.45624258782770344 0 0 0
55 1 3 0.4066437385015225 -10.882502864635782 -2.4195855672816524 1.172291837291456 0 0 0
56 1 4 -0.2246072883503104 -10.866665329865974 -2.1549944430503407 2.3531948093278743 0 0 0
57 1 2 -0.320940554447436 -9.856949994233233 -2.1040518398917167 0.24697853372791487 0 0 0
165 1 11 0.1666063765487101 -9.961269345637353 -2.209049920398319 -0.7760419762280099 0 0 0
164 1 10 0.07075135451391448 -13.071934866511869 -3.2871082564097414 2.161688713266199 0 0 0
58 1 1 0.02621561786896811 -8.503604750784113 -1.5827703038963683 0.5791498413447309 0 0 0
166 1 10 0.04981207680180026 -8.562714879537474 -1.0829828901623801 1.535572757950283 0 0 0
167 1 10 0.04981207680180026 -8.237402218372749 -0.8504581409835233 -0.16772866850119758 0 0 0
169 1 9 0.02366929916629904 -5.194919503966203 -2.229566622081548 0.775013560283001 0 0 0
60 1 1 -0.05785724888675247 -6.105636544224799 -1.7119826679098853 1.0619687217849965 0 0 0
170 1 9 0.02366929916629904 -6.117900547614456 -1.4086243762904116 2.1303429578879496 0 0 0
168 1 9 0.02366929916629904 -6.096291144196192 -0.8245507863653576 0.4726651699311046 0 0 0
163 1 10 0.07075135451391448 13.168200582428373 -4.069213298281964 0.64546531301777 -1 0 0
11 1 1 -0.01636798360734035 -11.869990829115881 -8.065697919375253 4.522324880277725 0 0 0
117 1 10 0.05665597941619162 -5.8801689577137175 -8.019355543432546 5.34153609864146 0 0 0
1 1 1 -0.05981142002302332 -7.39068318065116 -12.646674673813786 10.837992901559877 0 0 0
2 1 1 -0.032887501617238 -8.78873949871079 -11.949397563595445 10.887394589665897 0 0 0
4 1 1 -0.0274450801660705 -9.44576778419287 -11.548169717323336 9.405897218458058 0 0 0
5 1 1 0.03323970696365346 -9.360989793828788 -10.0703126526648 9.039627418410598 0 0 0
6 1 2 -0.3187187670904139 -9.334249292028042 -9.788968015328177 7.571095687206671 0 0 0
75 1 1 -0.02538400265287667 -8.044774693382742 -9.441415810619223 9.644590575837267 0 0 0
76 1 1 -0.009620215442660382 -8.090170316491978 -9.404133284928294 11.255204339804427 0 0 0
82 1 1 -0.04073040314652244 -8.774857482082007 -10.683623950259074 11.815103802370729 0 0 0
89 1 9 0.02930743679618078 -9.000252440338814 -12.096185938629702 8.565655867236257 0 0 0
90 1 9 0.02930743679618078 -10.455095004236977 -11.907096667390393 9.374939292195899 0 0 0
91 1 10 0.05298892332836235 -10.2905022242144 -9.575184510905563 9.406794940579593 0 0 0
92 1 11 0.1668741148317106 -8.663171219963457 -10.280937083073148 7.020914546357468 0 0 0
197 1 9 0.02783105007743622 -9.8749828058234 -10.450936168417892 11.802843515807503 0 0 0
198 1 9 0.02783105007743622 -8.407529330534798 -10.92963589918415 12.784635251749057 0 0 0
77 1 1 -0.05774154989098976 -8.990730343367009 -8.170322634393989 11.719537038504546 0 0 0
114 1 9 0.02909435016988916 -7.142707986728309 -10.570648847696882 6.419497587156591 0 0 0
190 1 9 0.0293864721228842 -7.653408698266012 -8.476148524835914 9.17035000354101 0 0 0
194 1 9 0.02367123610767339 -9.985670962951662 -8.303703996428098 11.273626339156012 0 0 0
7 1 3 0.4068426977732932 -10.036306749882304 -8.803192513375597 6.9409205005567545 0 0 0
8 1 4 -0.2245983116397505 -10.852256232306926 -8.13262491555947 7.526843457819448 0 0 0
9 1 5 -0.44955722076016 -9.802524554837923 -8.82827577221093 5.601465719091474 0 0 0
192 1 9 0.02367123610767339 -9.130079040195504 -8.20060600335582 12.847265973200756 0 0 0
193 1 9 0.02367123610767339 -8.56603075722625 -7.140797294526537 11.469381350715063 0 0 0
25 1 1 0.0466381698498417 -6.3432106536613695 -7.93960423748555 6.337470294292811 0 0 0
118 1 10 0.05665597941619162 -7.357333781174268 -8.134907141686547 6.240179833061523 0 0 0
10 1 1 0.09326843585115407 -10.291930393916106 -7.932729195539453 4.618052888579084 0 0 0
96 1 9 0.03022621956689231 -12.322257233134824 -7.891552591601905 5.476486749192471 0 0 0
85 1 9 0.02359313430291008 -6.719215266313954 -12.049087433717323 10.11446388757061 0 0 0
191 1 9 0.0293864721228842 -7.204280310011038 -10.138632421589834 9.25131469592848 0 0 0
26 1 1 -0.02741413804064414 -6.052887462608631 -6.451363198932971 6.834158146821635 0 0 0
120 1 9 0.02909435016988916 -6.5613928086934825 -5.758015685168674 6.123261171592507 0 0 0
119 1 9 0.02909435016988916 -6.622040836540895 -6.205796570594165 7.74784854098697 0 0 0
93 1 10 0.0707513556374369 -9.9480853092751 -6.923569668357939 4.853078414731387 0 0 0
78 1 1 0.05701397945558052 -6.66412413079533 -9.198356383066477 11.873058513870527 0 0 0
195 1 10 0.05299275046117684 -5.957465878990749 -9.855774399699857 11.439401039162517 0 0 0
196 1 10 0.05299275046117684 -6.623193842700892 -9.39515611038485 13.00721311119068 0 0 0
22 1 1 -0.02741413804064414 -6.13822568416701 -11.003767634199175 6.243429431021892 0 0 0
79 1 7 -0.2053708579395956 -6.083490194751449 -7.876336437719477 11.677171336946877 0 0 0
111 1 9 0.02909435016988916 -6.9676232720322595 -12.175870340715898 4.572452504133349 0 0 0
21 1 1 -0.02741413804064414 -6.079014988258014 -11.576936490449535 4.758149158807549 0 0 0
113 1 9 0.02909435016988916 -6.009124633441829 -11.907890065759172 6.890236485694639 0 0 0
80 1 8 0.2344571365311164 -5.303044314376868 -7.152875787465056 11.205344549517111 0 0 0
24 1 5 -0.3814493819627182 -5.674208875557923 -8.847036448425197 7.23366564755183 0 0 0
112 1 9 0.02909435016988916 -5.192116308141262 -12.201241506265925 4.718005790087157 0 0 0
23 1 1 0.0466381698498417 -5.04645221339941 -10.001416934321 6.694523147708913 0 0 0
3 1 1 -0.05981142002302332 -9.712179584384112 -12.95281850489237 11.414575592467601 0 0 0
87 1 9 0.02359313430291008 -10.703246265669577 -12.55460859495729 11.403701009630637 0 0 0
27 1 1 -0.02741413804064414 -4.515855760082418 -6.084131170325753 6.974736539562918 0 0 0
116 1 10 0.05665597941619162 -4.4864340538662795 -10.441170522428834 7.533586690055453 0 0 0
83 1 9 0.02359313430291008 -6.813690314531098 -12.651993975801023 11.706584812727087 0 0 0
88 1 9 0.02359313430291008 -9.382628324393146 -13.190017052821778 12.423879865538426 0 0 0
249 2 1 -0.02636427822271796 -0.9566497369764879 -6.119750753894518 13.227182891250976 0 1 -1
313 2 10 0.05665597941619162 -0.7404654227209806 -12.860124296501786 13.372442895636715 0 1 -1
131 1 10 0.05665597941619162 1.137683515269165 -9.908300811540476 4.939154963728462 0 0 0
81 1 4 -0.2113796383838462 -4.378417679518891 -6.584583472956241 10.735067471039699 0 0 0
359 2 9 0.03022621956258014 -2.829358803715084 -5.427036614681142 12.587952041121307 0 1 -1
305 2 10 0.05665597941619162 3.660854304434603 -11.699980680861106 12.783825708985079 0 1 -1
33 1 1 0.0466381698498417 0.10729858405660657 -10.159475170382764 4.9028118005251535 0 0 0
122 1 9 0.02909435016988916 -4.465560327535186 -5.060134022352849 7.42492896607212 0 0 0
132 1 10 0.05665597941619162 -0.05967945085373223 -10.818252465916027 5.661081975470969 0 0 0
32 1 1 -0.02741413804064414 -0.8040597745832536 -8.888634735700185 5.327003116390222 0 0 0
115 1 10 0.05665597941619162 -4.457877935605471 -9.747133763117853 5.813828339728125 0 0 0
129 1 9 0.02909435016988916 -1.7980411025527416 -9.347513435985999 5.6620208303085295 0 0 0
351 2 9 0.02909435016994487 3.589452980856616 -7.155169742468888 12.874455952200913 0 1 -1
302 2 9 0.02909435016994487 2.0781486217061635 -10.064264721429643 11.981199372809376 0 1 -1
358 2 9 0.02913587251314939 -1.0442140952172334 -7.180257098796446 12.853795527018898 0 1 -1
208 2 1 0.09326843585115407 -2.1407205008839885 -10.566938611855194 11.290209370749665 0 1 -1
209 2 1 -0.01636798360734035 -2.584148879609882 -9.508493791495114 10.308828304478395 0 1 -1
210 2 1 -0.02636427821821108 -1.6033341060418624 -9.28953537712114 9.172638865297499 0 1 -1
211 2 1 0.04667935279419728 -0.4593225273270576 -8.28343999768371 9.451765902497884 0 1 -1
212 2 5 -0.3814486322076339 0.46047241630109453 -8.828275206720855 10.452185334711789 0 1 -1
213 2 1 0.04663817775707114 1.3014407827347252 -9.91869525178645 10.049678000426546 0 1 -1
291 2 10 0.0707513556374369 -2.9809728150807726 -10.65124252831323 11.986733194279687 0 1 -1
292 2 10 0.0707513556374369 -1.222218024015934 -10.31001843226764 11.73456069588084 0 1 -1
293 2 9 0.03022621956689231 -2.653758842248599 -8.548119705637475 10.851020738422706 0 1 -1
294 2 9 0.03022621956689231 -3.612400275033025 -9.639339640829728 9.92225096201336 0 1 -1
295 2 9 0.02913587251315736 -1.2802897450406419 -10.290035794406325 8.731939439201154 0 1 -1
296 2 9 0.02913587251315736 -2.2465795460129105 -8.909018069349598 8.427961832734754 0 1 -1
297 2 10 0.05665670390454289 -0.9045955338112682 -7.390780202193699 9.910501552807023 0 1 -1
300 2 10 0.05665597944628357 0.7984921102315047 -10.483495636487364 9.268182496902696 0 1 -1
207 2 5 -0.44955722076016 -1.9716043559261762 -11.902215194255213 10.66978614579194 0 1 -1
205 2 3 0.4068426977732932 -3.0272684653841204 -12.643856653742573 10.150187459895095 0 1 -1
206 2 4 -0.2245983116397505 -4.216355447903813 -12.357092791586304 10.06352372281032 0 1 -1
214 2 1 -0.0274141380091939 1.7800229415470572 -10.764567099155839 11.167866799259604 0 1 -1
301 2 9 0.02909435016994487 0.8499034123135856 -11.241020168283471 11.584055936552083 0 1 -1
121 1 9 0.02909435016988916 -3.9511831071774046 -6.905636919387824 7.491631889436482 0 0 0
316 2 10 0.05665597941619162 -3.3801332308716887 -12.612619266829045 13.04151009219513 0 1 -1
298 2 10 0.05665670390454289 0.04294398856955524 -8.061022257456095 8.508642122758483 0 1 -1
215 2 1 -0.02741413804058574 2.8849180025718923 -11.735819301354741 10.75387049761994 0 1 -1
303 2 9 0.02909435016988921 3.7032987224059326 -11.131595078752108 10.31641541711595 0 1 -1
299 2 10 0.05665597944628357 2.1124882228059483 -9.339135095723652 9.573761767378143 0 1 -1
28 1 1 0.0466381698498417 -3.8141219572593377 -5.873707403198424 5.68551514595647 0 0 0
130 1 9 0.02909435016988916 -0.32533340595595706 -8.330355266931406 6.20816502374864 0 0 0
30 1 1 0.0466381698498417 -1.7704838978624093 -6.502977107878411 4.593377324967543 0 0 0
29 1 5 -0.3814493819627182 -2.6190179590630946 -6.691325707633728 5.702733844344613 0 0 0
304 2 9 0.02909435016988921 2.49228126775708 -12.47305560808609 10.05527821853081 0 1 -1
123 1 10 0.05665597941619162 -4.43748419976165 -6.1977954631953 4.793456802366771 0 0 0
124 1 10 0.05665597941619162 -3.5290405230565276 -4.839284669538777 5.529203078518856 0 0 0
126 1 10 0.05665597941619162 -0.9950179237153843 -5.788001398272606 4.922038513947002 0 0 0
357 2 9 0.02913587251314939 -0.7176997555737378 -5.543205221090286 12.31721332894414 0 1 -1
216 2 1 0.04663816984984175 3.5606120247036053 -12.388981827675433 11.960839486699427 0 1 -1
346 2 10 0.05665597941619162 7.726080419238057 -9.40159232185084 13.335549376281996 0 1 -1
348 2 10 0.05665597941619162 5.978240412524716 -7.337441761589731 12.603747306694542 0 1 -1
345 2 10 0.05665597941619162 6.065958102338583 -9.733702867250873 12.966503982643989 0 1 -1
306 2 10 0.05665597941619162 4.488260761636698 -12.771811959599269 11.607378683867731 0 1 -1
320 2 9 0.02909435016988916 -5.157170869192071 10.41313881599365 12.963238699690278 0 0 -1
84 1 9 0.02359313430291008 -7.577471860939061 13.228493935407085 10.36663564425169 0 -1 0
86 1 9 0.02359313430291008 -9.680033630035318 12.986379384368492 10.807771997741954 0 -1 0
279 2 4 -0.2113796383838462 -8.555505604642649 10.141604762540613 11.157415005535665 0 0 -1
278 2 8 0.2344571365311164 -7.528838034970077 9.813765378901047 10.667527766852208 0 0 -1
391 2 9 0.02367123610767339 -6.850668538967999 10.763984214085434 7.778845652643311 0 0 -1
277 2 7 -0.2053708579395956 -6.4193946208194985 9.615753709690061 10.261698339223669 0 0 -1
390 2 9 0.02367123610767339 -6.095674421996588 9.644751966652283 6.548734399812398 0 0 -1
275 2 1 -0.05774154989098976 -5.8717853209653965 10.507924050485503 7.2687628166733536 0 0 -1
394 2 10 0.05299275046117684 -5.900349397277706 8.353272772760127 8.720526695763093 0 0 -1
392 2 9 0.02367123610767339 -5.747547695242459 11.41280132840841 6.679549285433923 0 0 -1
388 2 9 0.0293864721228842 -5.143535754843684 12.0329554032816 9.291116414069439 0 0 -1
276 2 1 0.05701397945558052 -5.379440113715962 9.089887182946857 9.31167027837914 0 0 -1
393 2 10 0.05299275046117684 -4.61915784903739 8.563763929982352 9.90372572937566 0 0 -1
224 2 1 -0.02741413804064414 -4.6213707927511685 12.483590026532918 13.14852337912276 0 0 -1
317 2 9 0.02909435016988916 -4.666620448236232 12.411821384728663 12.064967676924754 0 0 -1
274 2 1 -0.009620215442660382 -4.750027187571168 10.137971263764262 8.29801737002472 0 0 -1
204 2 2 -0.3187187670904139 -2.5657509966439807 13.0254602940661 9.873745363226853 0 0 -1
290 2 11 0.1668741148317106 -1.6479676513981383 12.812731637547888 10.139991726575767 0 0 -1
289 2 10 0.05298892332836235 -3.2540035486530683 12.616785199499082 7.950027565600869 0 0 -1
203 2 1 0.03323970696365346 -3.067819360605794 12.104576561935472 8.861774770354938 0 0 -1
217 2 5 -0.3814493819627182 2.7628664996870795 13.43592907367408 12.42874467101458 0 0 -1
220 2 1 -0.02741413804064414 0.15054783577735717 11.952124111658565 13.418683734503075 0 0 -1
222 2 5 -0.3814493819627182 -2.1113100132338123 12.537237969089809 13.21328659221559 0 0 -1
273 2 1 -0.02538400265287667 -4.310997306766271 11.345005507406704 9.228800258269827 0 0 -1
283 2 9 0.02359313430291008 -2.5035190228551443 9.015770295656043 10.304030423606859 0 0 -1
312 2 9 0.02909435016988916 0.37711427164948064 11.947616960156514 12.318736939078248 0 0 -1
389 2 9 0.0293864721228842 -3.9812437834049317 10.896470520409602 10.226744871811881 0 0 -1
199 2 1 -0.05981142002302332 -2.008540304597994 8.653336296056745 9.448748979810707 0 0 -1
200 2 1 -0.032887501617238 -2.1540400316578694 9.547269837201 8.170959064278165 0 0 -1
202 2 1 -0.0274450801660705 -1.8621577266265692 11.077452363505323 8.560469241790877 0 0 -1
280 2 1 -0.04073040314652244 -3.5497959276993405 9.532616535992236 7.524030389880974 0 0 -1
281 2 9 0.02359313430291008 -2.372449729533748 7.603182614308155 9.338168507037143 0 0 -1
282 2 9 0.02359313430291008 -1.0238774285018035 8.532345453736765 9.725810745198228 0 0 -1
287 2 9 0.02930743679618078 -1.1752077528830898 11.033470647981403 9.422446719647482 0 0 -1
396 2 9 0.02783105007743622 -3.760210749979245 8.426671818888035 7.366894875263149 0 0 -1
201 2 1 -0.05981142002302332 -1.0936322419824869 8.950739611549038 7.235042651243051 0 0 -1
284 2 9 0.02359313430291008 -0.20826747666733453 8.772407127295446 7.842986331898231 0 0 -1
285 2 9 0.02359313430291008 -0.8158301675203591 9.575473382296153 6.335746729498134 0 0 -1
286 2 9 0.02359313430291008 -1.4264582754330475 7.96975166752578 6.825480265360327 0 0 -1
288 2 9 0.02930743679618078 -1.194413910782773 11.424365289174734 7.722626926761064 0 0 -1
395 2 9 0.02783105007743622 -3.539714202623487 10.03731038662532 6.537289274083559 0 0 -1

Velocities

68 0.0016877902627920514 0.0027870572752481527 0.0047409382468024015
67 -0.004783788358968376 0.002908267754698891 -0.00757100103668038
178 0.006684366990460807 0.008188175727508379 -0.003011203271320493
179 -0.018191451243242833 0.01637341522232081 0.016146069653351854
148 0.012885675522102409 -0.016337629364969 -0.0111156866657843
149 0.0017154007214802425 0.011845883574609533 -0.021712895908306384
45 -0.0008355940565145831 0.004809865471130336 -0.003731216035270569
150 -0.005572452423314843 -0.012287645420534732 -0.013003023598576096
152 -0.005427830220372593 0.0013601260211565194 -0.025221923492260698
177 0.027179873861404254 -0.017587016155653733 0.007703792451403584
69 0.01150804426076334 0.003730132160465313 0.003593095651297385
175 -0.007269153696356356 0.010778126975348195 -0.019585069493932912
254 -0.00026759743251695254 -0.002368640752661193 0.002064785564314068
250 0.006089827900776426 0.004304881145552152 0.0011487683286760593
253 0.0028110907425450086 0.0013807319132648128 -0.0010434464003916328
360 0.002092060726587368 0.025618922800409758 0.001450518025445729
246 0.003134823874335181 0.0015939476594271245 -0.006034567238013607
247 0.011067212586804456 -0.01078749854573836 -0.004770173326312375
248 -0.004030256778982615 -0.002520921429810746 -0.009531716957630247
255 0.00203439541611037 -0.001097623238748646 -0.0023520531378386487
256 0.0055905081325577696 0.000752093889271621 0.004939360745691286
257 -0.00015798838271761502 -0.0013827072538875349 0.008027698648581823
259 -0.0052866435070541545 0.0009386477810042354 -0.008087462337466773
260 -0.004659919183203596 0.005825201594060543 -0.0005711314987367765
261 0.0010015084018830597 0.0013964675147043945 0.0081224129143263
268 -0.0012381224864635638 -0.008523086959241085 -0.0014412969803121057
269 -0.004868109703253023 0.0002268019673800421 0.001166368079792675
271 -0.0030624214134215362 -0.002120081568375173 -0.005994328124685042
272 -0.0012020882774353985 -0.006548082282499038 -0.002242545552719176
353 -0.0073185995317100955 0.010439192748596643 0.0030306674118217563
355 -0.0006374064345971557 -0.018965842009589885 -0.00755345215741075
363 0.029761968811952855 0.004506227391515179 0.00594574823311117
364 0.0019887821840593877 -0.02293552833044396 -0.005129902691126537
365 -0.019222904413102853 -0.011077745292980438 0.010269455832507502
369 0.01160964542850521 0.008875666614245707 0.003793562731177059
370 0.014981752600438302 0.012365616805008252 0.012806107547395822
372 0.02437144343854096 0.018497760181779028 0.011968115910465824
378 -0.013416424614847287 -0.0203369602134529 -0.012028299365529264
379 0.028875458873946182 0.018118357805081073 0.02000488695117978
385 -0.036819956003201405 -0.03640511271006278 -0.02968545088017347
386 -0.0028190833468400107 -0.020037627372174297 0.0028728812254018785
387 -0.006786852646324025 0.012843046330028658 0.005533764318488488
352 0.012772861141090894 0.004329465576336778 0.027096550113174578
258 -0.002588233909103061 -0.0003549501043201313 0.006802328356288099
262 0.005551957871828527 -0.004644212901076939 0.009427514542720592
366 0.01701926572976768 -0.007502373878120108 -0.0020763973428825776
368 0.01693803549836721 -0.011735384601345962 0.036319921171651545
263 -0.001098048780592174 -0.0018961467292701072 -0.0022473489569008204
371 -0.011499550450627125 0.002783410651872107 0.009554875651066223
367 0.01782149037993901 0.0324753441899034 -0.0042732323370320595
270 0.0028372397256496732 -0.0013395022853542747 -0.000687418664389428
384 -0.027669151103832654 0.012574184146056875 0.0003063282109844366
382 -0.02043972696135981 -0.02170750683316708 -0.003090351265429627
380 -0.007278271381516325 0.025064235101743392 0.013347385598808787
381 -0.0069002730368784935 0.014623607097833708 0.024132961505809215
334 0.008483283943008905 -0.005977058154401021 -0.0028792511983801857
315 -0.014487114071557696 0.012898827340862526 -0.015558738044389928
383 0.008467405776211714 -0.0005037825018895317 -0.018888898939688984
329 -0.0034644822028222495 0.002555045622612459 -0.00417582931097374
331 0.0013633986855858698 0.0045975732112870865 -0.003931522864645747
245 0.007903311620328167 -0.0017366320136114719 0.0018989891568554035
354 -0.021888929080247255 -0.019684906431624613 -0.020354529438449797
356 0.02230056023172548 -0.0026060780316460174 -0.009914557404936465
237 0.0021302268098827423 0.0010573415623928131 0.0020492263744465882
233 0.00013745105497976553 -0.0012337551070027966 0.0003369844519229976
234 -0.001296046838424166 0.004253453255839147 -0.006997844439216505
333 -0.034859805883477916 -0.031132858182463613 0.01837957466282184
307 -0.014647984012623485 -0.0011434191161339418 0.03535965466804738
308 0.0036210150223076384 0.03159732620939622 -4.445100850658839e-05
218 0.0007241078317136596 -0.0004141394269155552 -0.004156179803110062
349 0.00401631377357963 -0.002093498908350286 -0.002997975159394425
342 0.011685498997043743 -0.010326279980178031 0.016159286156646874
341 0.011809659869289347 0.005822419862932911 -0.01613295045433007
264 -0.0014612690638444738 7.507175402129774e-05 0.005996090285520534
244 0.00977706652877554 -0.0019096035168531442 -0.0005964469952646733
350 0.007895035060459295 -0.01585353977168979 0.033340621131379464
239 0.00891795502697482 -0.002233210401548476 0.007480298378503072
238 0.0015655498057508643 0.004709981543597606 0.0012459888304605644
242 0.0015246635779542928 0.0009419965731651725 0.0021391122771501295
374 -0.0002930317189360853 -0.002617267539595433 0.0051859253421972585
340 -0.013621612936079221 0.004690176171216894 0.00502701018495749
339 0.027744945650213168 0.009289840828488913 0.017879074819569043
265 -0.0036253651779461584 -0.00017087707525291466 -0.007929641750532053
373 0.0003264745270276294 0.005187389731545354 0.008916729477403122
266 0.011660862633044736 -0.0027700457811423726 0.003618404117401345
267 -0.003809310053243662 -0.005118905888583455 0.0028703130662482944
347 0.03249406452081353 0.015948373720770327 0.026379734828184818
376 -0.02775616506291672 -0.026498588597885966 -0.016280397623969083
377 -0.011626395610174685 -0.01982509426694042 0.001704780533310221
375 -0.00719543997626129 -0.010534262874277582 -0.022116552570751402
241 -0.0036267352109039643 -0.003190870059506591 -0.0023673247454522586
240 0.001096528097154565 0.006151680297367518 -0.014413071721132988
343 0.0217455161758954 -0.0017268477912000112 -0.0032110651480383055
344 -0.011123411408149288 0.028075937277681387 0.0043827205689692715
243 0.0010806418724784103 0.002449318688498494 0.0010637570810696551
176 -0.0026597730405616316 0.016512319108345164 -0.012156562295623417
252 0.0005280234218020991 0.0033296583073063614 -0.005292296398266642
362 0.010096106408418773 0.009266269442402478 0.02087710937764663
251 0.0007488427852059458 0.0032203513405666307 -0.004595934253016417
361 -0.008385755757338234 -0.007195255239873931 0.02263456154299989
323 0.04626690040464307 -0.006223780125648299 -0.030878865457309095
321 0.020781991175797394 -0.021593902374631036 -0.006546562998722236
226 0.008896593666521513 -0.00045855144124425714 0.003545530524319678
322 0.04007889624810635 -0.017084396466620175 -0.025445744536109205
225 0.004857900367220882 0.002682389738557267 0.0007928339511734972
318 -0.008957030407870504 -0.013133124774420295 0.005924771668690829
325 0.0006338314426165246 0.014604157144049466 -0.02689572190878065
223 -0.005833994692477209 -0.0007476597527041344 0.0028027002698918055
228 0.0009742935296078377 0.0034706427161166954 6.734129578754745e-06
324 0.014614499672441772 -3.3780419205366016e-05 -0.016399515562749024
227 -0.001751448325938993 0.0007938491612068623 0.0015675788102974292
326 0.006449074284335398 0.003576347492670329 -0.0003194529457255266
229 0.0029532739747540303 -0.007541838550444028 -0.0017131712826593218
328 -0.009561411989110024 -0.01574967299832511 0.01525816518172972
230 -0.006843616993640639 -0.0009086902304895276 0.0034853179008799994
231 -0.0027914709807645914 -0.0013795312620146895 -0.0010918063687387377
232 0.003409068855557361 0.000698018202493861 -0.002942713826903785
235 0.0003258509955346103 0.004493100216875735 0.0016329363414653323
236 0.004861036398870177 -0.008436615381003758 -0.001622018836252515
327 -0.00850817946598016 0.029358985336874012 -0.02415376977419512
330 0.006239558715302838 -0.03221721450544829 0.028257803167817445
332 -0.003139870108474793 0.01499719505255196 0.006076930147167216
335 0.0063460414904358015 0.005871238445695217 -0.025303620058872156
336 0.0013467891846480695 -0.016606530765471257 0.021276993036774106
314 -0.00826256066547833 -0.009464670448770168 -0.007612751197077973
310 0.005805788372844322 0.009789053622475508 0.0004482999015719251
221 -0.0009445484864353691 0.0014372827183886875 -0.007098385248431571
219 -0.006037026261052359 0.0009017435652341584 -0.0013517939143684568
309 0.022017941858252347 0.0184459841049543 0.004055419897512673
319 -0.0017672183300908263 0.022528457091590088 -0.01163419026292009
311 0.017658122620141162 -0.009284332542215503 0.004207583083455054
337 0.013621028558439175 0.010358514005764716 0.04394821852996608
338 0.022900587048966525 -0.026709422968243118 -0.006643081657524529
43 0.003757645826596529 0.0002088047102476395 -0.002998337222841384
44 0.005471976266548978 0.005363714128020445 0.00011932107301757433
63 -0.002424721740075381 0.00011318475862375242 -0.0009180148436299829
66 -0.00018642499968666413 0.0031572830702632777 -0.0005999185452890308
70 0.002713463711374733 0.002664232767914106 0.006609725081362076
104 -0.011693862235866694 -0.009878141863472162 0.009146687551144702
107 -0.0005501818994865157 0.009549962623675955 -0.007207514099596982
147 0.026699680341291335 -4.6952681677902785e-05 -0.0015430907276715096
154 -0.02639544182480748 0.01013349756917687 0.005666299824346308
174 -0.009641939286539093 0.01885967421345088 -0.007299775123600264
180 0.03905341001520886 -0.0032254658605931873 0.0001052887187616153
181 -0.008922920245387813 0.015474646661877013 0.02451963768533442
47 -0.0018516696082807311 -0.00044427085316049914 0.0011669308941689835
71 -0.005784254217929471 -0.0031360730066514416 -0.008839149789608404
185 -0.0008779960149313034 -0.004332606447827316 0.005346230896393104
18 0.005144298678000726 0.00388894637924916 -0.0003897619850510722
105 -0.03475094649090555 -0.0343275201627213 -0.02404753559594307
108 -0.01770472561182452 0.0015162377850899914 0.004517047711295339
153 -0.0013232428088373806 0.01648655537088203 0.018333963049842493
73 -0.006323452667498941 -0.00012869015004580376 -0.003407777549182104
101 0.004639720573021208 -0.0063856430998010996 -0.009410225376393999
16 0.0005623305017485611 -0.004019069009308742 8.643209585068397e-05
17 -0.0008980718628681207 -0.0038355605249847215 -0.0006551690491830764
20 -0.007878259981927389 -0.004338687238143038 0.003273894722359291
151 0.014282765774484358 0.0033657516265172952 0.005878026192696814
46 0.001459095391993088 0.003630809332780103 0.0009402805827926604
186 -0.01146894422158981 0.007275619062329472 -0.011345556709396402
187 -0.02447049967600371 -0.026659189668379504 -0.004446786437273297
14 0.0007358422934145406 -0.0016041530851997297 0.0023989408952741023
15 0.0008806201929009007 0.005292801942929638 0.0009184131389669187
100 0.014654446894639945 -0.0022515169176319716 0.003602405197934547
99 -0.010815880304318825 -0.010231110317813012 0.006122818827190848
13 0.002702000523785057 -0.0003216433137211485 0.0002286353532441526
19 0.00797075592199488 0.0020717977709562014 0.0009470161581198095
106 -0.0098304485535405 0.010300686894961435 -0.0006106589373215707
102 -0.003497785103581205 0.006144345855638577 0.009094602765628306
103 0.003945227193818828 0.0186226875486952 -0.00019229865146814357
97 0.0009899229035621514 -0.006810419736011383 0.006109988273949652
12 7.029258168544041e-05 0.0019932874625539776 -0.008433384769943849
98 -0.032524726976103806 -0.005330059213989096 -0.005023318159202101
155 -0.011096167069786285 0.014650768221872251 0.007217895782941158
48 0.005750808240901459 0.002658601832728606 6.910862005988479e-05
49 0.00034699648193466543 -0.002243565014684993 -0.005068044248432774
94 -0.012137106229877388 0.023210390927542842 -0.024942582877442207
95 0.01688137181101678 0.001703027770790183 -0.004154199676490726
109 0.001797833575654436 -0.015212881605486669 -0.004019125592889164
156 0.015676248416714705 0.002142124081770096 -0.0027076806261731134
50 0.0074580100954813175 0.0010365573830616855 -0.0003631654809375521
157 0.020664673131076654 0.017900190890027295 0.013473517552091262
51 0.0003006167460674615 -0.0014289705775967778 -0.006886825476035101
159 0.006170354475927351 -0.020254860407545573 0.012970164849657797
160 -0.010657639139692336 0.018950500163793453 0.015409628920121484
184 -0.009088656200767244 0.0005690925451328338 0.0074032138376037455
72 0.0007679291584353083 0.0011376782756726735 -0.0038988487813922126
182 -0.0063586750880738185 0.01191681981676968 -0.0034689348322693696
110 -0.024165188303709534 0.010421280219520785 -0.013962307178397512
158 0.032542162436197536 -0.03115781713494444 -0.009585677533714346
52 -0.002514309468356319 0.002515206211993054 0.0059531324650894685
162 -0.005773032459929676 0.025857668192886967 0.007340063332387947
161 -0.01647975064628659 0.016613960587093114 -0.012806686528507721
145 -0.04434206672146714 -0.019694099259856757 0.010932801429926168
41 0.002704504547059188 0.0027120551223188253 0.00019703851548811207
42 0.0013747340088980944 -0.0011406091026941302 -0.00438299837871071
143 -0.011119977537989375 -0.023193776119941233 -0.010725944661374581
144 -0.012941700384277536 -0.012212698041475364 -0.024188551846855914
141 0.005500477310476262 0.011766636752956451 0.021139627830724095
146 0.009915456388414703 -0.0010048428915063565 -0.010108793980153321
39 -0.00527051455638661 0.0012485177515308527 0.0005340561513893034
40 -0.002909723896285164 -0.0005601523529737532 0.0034604157600766836
142 -0.0024308110505413837 -0.006708168451070506 -0.0010780680347688611
38 -0.0008903210302457561 -0.0025055764238679965 0.004179753164931218
139 0.00334456876144877 0.019039911737241955 0.03364370307213795
140 0.022448024557180667 -0.0011544206311604516 0.02175378512265867
37 0.0023520407646379364 0.0004147050806623284 -0.009154798973936699
136 -0.006136177433029793 -0.0278569407759305 -0.010674798170933876
137 -0.02932032550220558 0.021583588653814944 -0.014580759291387914
36 -0.005225444749695764 6.303207768718065e-05 0.005035750295547386
135 0.006501516959200547 0.014887017118507585 -0.0006085578922177986
34 0.004285348016641454 0.007376979810698352 0.006234501993467322
35 -0.0007950294975132687 -0.003674565396781523 -0.002845462239757956
133 -0.007080282640140326 -0.002918095401970685 -0.008854685020058598
134 0.003633246013693261 0.024921606044015127 0.015436167793184803
138 -0.022833878183665307 -0.001190266863289665 -0.016455221602790306
127 -0.001952362930151562 -0.05388027952690599 0.014468714745466469
128 0.005460756702412232 -0.010080434807121631 0.01952551970774075
31 -0.0008863624154095758 -0.0014764691369104548 7.191349252275469e-06
125 -0.010349108283535005 0.004750534495817233 0.01635307346597172
62 0.0014384986358421286 0.004963546745705621 -0.00043498658187875086
64 -0.0098581767170355 0.00708502853315976 0.008502586157011008
65 0.0030639247264502953 -0.001737072712202996 -0.0028376962226982784
173 -0.012317408483586962 -0.013075155528976349 0.0008413238107753715
183 -0.019801364432889802 0.002882780274588471 -0.013157140927751524
74 0.005915460031327769 -0.0014862077205916593 0.0014833916739211373
172 -0.010413965959980053 -0.0023093664863014013 0.0020168779638335644
188 0.018120632918501575 0.0009151753791974694 0.020138479524314856
61 -0.002929713258751389 0.0005905208258192221 -0.001935567955930754
189 0.0027934830335339406 -0.015157978156600757 -0.036775092623562614
171 0.00465881807601976 -0.0016639629034359196 0.005666045784122373
59 0.004262784164010947 -0.005098404217553 0.0021493215899878416
53 -0.007691079081028897 -0.007086757074367176 -0.005682804006571478
54 0.002319315518482751 -0.0052946130531879975 0.002352158521633274
55 -0.0057976586828890715 -0.00826272874614214 0.002324313815963432
56 -0.004970828145573639 -0.0011555282025970733 -0.007007224046461752
57 -0.000649957354706863 0.0018954647073089474 0.00493769906221584
165 -0.024319773962041127 0.004207171639144649 0.00045386058202968123
164 -0.025234247835600018 0.018126108957230838 -0.01658948683043393
58 -0.009147083750103214 -0.004155164540402456 -0.002686355512785757
166 -0.004897245787268269 -0.0021675435144977804 -0.003571131532957601
167 -0.02745222381439587 -0.024712418897386134 0.027860405553499903
169 -0.041743347138093884 0.0016489643767709067 -0.008471580022531795
60 -0.008102778552338189 0.002246843104706088 0.0013430000203620218
170 0.009419144826396718 0.01662609327187411 0.0031359232108614777
168 -0.03639322158805836 0.006133122864744135 -0.018192169023055385
163 -0.03855018535586876 -0.008454534998611913 0.011750710826229128
11 -0.004902012825891444 -0.0014161220547298688 -0.009953935566165169
117 -0.011679736622196736 0.013481255867852612 -0.003918626499947186
1 -0.0010251974206424458 -0.002490665040753376 -0.0006445819070252078
2 -0.002233389607307496 0.00047080261355377586 0.0033615086002439557
4 0.001203623662290774 -0.0022306781260123818 6.165957349627801e-05
5 0.0009446002430124765 -0.005322122411093102 0.00351670502769828
6 0.0024297350834893926 0.007151455947771463 0.0020860377385821705
75 0.00511070707674918 0.0030017405795809047 0.00599594569089432
76 0.0011990068262907885 -0.0005298385600925018 0.003744561538470613
82 0.002227358012850938 0.0011329184800035394 0.005519543596633218
89 -0.0048530891909431655 -0.028669753971110205 0.008312831720417035
90 -0.0026844525563687513 -0.024432554571827428 -0.003678880284145565
91 -0.02160889392770449 0.012397338135531032 0.00792764483233029
92 -0.014671920206806395 0.01159113572836917 -0.01299598891933536
197 0.019752940229761564 0.01451210730756652 -0.013733497558842997
198 -0.0005747551110685062 0.004041093505553749 0.023889050694456612
77 0.00047330416502268315 -0.004581917852744533 0.0017797584857661493
114 -0.03862797317591549 -0.0087196544615712 0.02481964193551384
190 -0.008907971178226445 0.03103289784283382 0.0008583862883970093
194 -0.0060906403983099 -0.026556786459483943 0.006170524193863432
7 0.0004687393167561026 -0.00041966598472030297 9.524076882641223e-05
8 -0.003574837979138104 0.005528054882144221 -0.0019470378713327228
9 -0.00040045786739774494 -0.011532479152104636 0.0043674729830341565
192 -0.0019255706385127083 0.027761873958316034 0.001778379560055582
193 -0.030790636091257723 -0.013199355409112929 -0.0071701335356918585
25 -0.00377625999241548 -0.0038230318807559276 -0.004882068759901805
118 -0.00491847909270858 -0.009000956685730874 0.0036997469651845016
10 -0.004608589468341041 0.0016781376972520522 -0.001489377669580557
96 0.00606428150732094 -0.00218606657270791 0.002975347455332841
85 0.03314507949083947 -0.004749937423382815 -0.0010852300886664433
191 0.005568955443185474 0.02104264173425094 -0.008471451476447373
26 -0.003374007717732583 0.001552655608761864 -0.005958727054985934
120 -0.0026267177110750077 0.03047455421371166 -0.02333777863425847
119 0.02004994723942596 0.003375693172339417 0.015732236178230757
93 -0.0048065110434398865 0.023349542112177366 0.008543690875950158
78 0.005982338753816757 0.006414633700992881 0.008361967829273557
195 -0.012040249008356282 -0.004762490845164567 -0.00022966054358521508
196 -0.01976095560193475 0.00042005968596798307 0.0056318349298668776
22 -0.002267433968874504 -0.0028087927856202954 -0.003736387649761313
79 0.007899945339988246 0.0025048465375214616 -0.007223970570435473
111 -0.01776484393437819 -0.016921329082732205 0.012422037698560625
21 -0.007546500422534727 -0.009782664559832455 -0.002809516857573919
113 0.034584472023692046 0.008734002236629668 0.00914785294997587
80 -0.002148872635580251 -0.004157630228014959 0.0038539327488539103
24 -0.006288840008591983 5.872286721200482e-05 0.0005665594429185932
112 -0.0231522792314337 0.02392854246439099 -0.022228242492671933
23 -0.0019059938666298195 0.0002623212488896832 -0.005971796349230353
3 0.0035676740149066795 0.008512805303441449 -0.0024266398235040076
87 0.03177556582509943 0.0072319471430542055 0.006399590826942718
27 -0.007406464887821557 0.006303320529632318 -0.001525712785709143
116 0.029891518558544994 -0.0007776135022540366 0.0001844220067730361
83 0.012430123168631544 0.001076732918275396 0.016253888510274303
88 0.010842460067854715 0.00912074975900124 -0.0029484878289078777
249 0.0018404031270790886 -0.0003318606363633658 0.00755446174547853
313 -0.025471436167173112 0.00017337178330032414 0.006383604562603518
131 -0.010502707195842568 0.011176159479335394 0.015516583918912495
81 0.002550254432692663 -0.0015712977461231864 -0.0037000760700711547
359 -0.013067164671862433 0.01745550421206991 -0.007047159794674524
305 0.010705136227740393 -0.015154162073134624 0.0008618005066972263
33 0.000228969972614487 -0.005640763068386822 0.00219058065399927
122 -0.016873684893104497 0.020265647338444846 -0.00022630950098994043
132 0.009803219810198995 0.012289282046401345 -0.01226144955333692
32 0.0012184458735009947 0.007326521432215159 -0.00793370607474558
115 0.014109082631899422 0.010802255124099984 -0.019165640817930353
129 0.01480395294628771 0.008201302544487992 0.03027911148962144
351 -0.01711070364235803 -0.015868152934959013 -0.0010253001749356613
302 0.012963825045087642 0.03106692313245529 -0.001622904697419308
358 0.007792650129548671 0.01747585357887607 -0.002685446274737013
208 -0.00788196696160832 -0.0012902485363920878 -0.0005567707077011152
209 0.0035102025625227172 0.00020515024610745603 0.0052077873152444045
210 -0.008084516360597703 0.00026657097064463313 -0.004591261189261388
211 -0.0037981215589810635 0.0005193960258344834 -0.0007423194293496361
212 -0.007339276928675427 -0.0012974641673989522 0.004931918127489421
213 -0.004878370016716195 0.006949867909946788 -0.0009593430133462505
291 -0.0019886477634384263 0.010741341206509564 -0.013687536478716006
292 -0.009203903917562617 0.027444473499343664 -0.01738592455630091
293 -0.009525716122573849 -0.009340918469934465 -0.004245543690293274
294 0.01353404414951143 0.008386713582029718 7.456296094977373e-05
295 -0.0028028493051460075 -0.020277723485125843 0.006981890907816126
296 0.029847359251826754 0.00728755023814592 0.0128167378703066
297 -0.01799142433595184 0.005250300510109639 0.028839847480814574
300 0.019605067706256293 -0.015562055219647488 -0.01541607637548248
207 0.0003455503462908644 0.0005031585768643992 -0.0038563095030131104
205 0.0018714804144280422 0.0022950523494801606 -0.006493604854746793
206 -0.0037377164589188876 0.002309776913358858 -0.0010490794972130106
214 0.0005639586261918419 0.00747624130524466 0.0011846958802171758
301 0.02610180476709135 0.0009528402408943764 -0.01190453178359257
121 -0.0028702183519626326 -0.0016489524573859002 -0.011386661856578389
316 0.005968915541656864 -0.00456459281937075 -0.0016706772977155319
298 -0.016079747439817604 0.0003873203870409511 0.007656965383263153
215 0.0009186703797697995 -0.0014272104865323478 0.0002227053552391388
303 0.0010645579790957954 0.00028141911277457905 0.046185645074636204
299 -0.008939642338247655 -0.03160834258487586 0.005148556031042629
28 -0.000979207248316872 -0.001295732397736739 -0.0013390431697251175
130 0.030686440222208965 -0.009915335446520622 0.02230312049561034
30 0.00011308814386684429 -0.0005045212556587942 -0.003009883970612765
29 0.00033592630902237714 -0.0029433812926160973 -0.004354471008126988
304 -0.013485755836875753 0.006484758317990278 0.0032717960287478604
123 -0.0033978025024879862 -0.01987660812967903 -0.013324519174369501
124 -0.0013942183044023363 -0.01947855840134507 0.01904178662246789
126 -0.006169404548621356 -0.015063547501874242 -0.0028908607722824328
357 -0.0007421226275352705 -0.018517815431743377 -0.004998369625104916
216 0.002788423166919943 -0.007425480040863936 0.007490668988891937
346 0.0025092202393117184 -0.011725025404250342 -0.00963635034050907
348 -0.026623267652705597 0.023605641587424127 -0.013086252797330835
345 0.02609836698191932 1.556917228749475e-05 -0.024513751604938995
306 -0.007666406252922492 0.016872234291962634 0.023308683794287736
320 -0.03290135673118858 -0.04087383413362034 0.03887440118433721
84 0.009691134891486802 0.027835749812167895 0.02300418287125921
86 -0.03355616328023037 0.0011339331482843498 0.006630119016336529
279 0.005736710003772997 -0.006139716044911065 0.0037178425663138255
278 0.003815575462131291 -0.009526242457915828 0.0024855103017748944
391 0.0162995472618621 0.001219216767099088 -0.023001551286211327
277 -0.003167345999241833 0.001111289145307338 0.005806611343282953
390 -0.0014459410164812695 0.031366052761854654 0.013931989553942708
275 -0.008180432655018043 0.002264783167685133 -0.0004273711803892404
394 0.016144551682736978 -0.019273784366894423 -0.012640974175301467
392 -0.01987241800523316 0.020667495815479185 -0.018232404877439698
388 0.012702860184334136 -0.0011527697038535981 -0.008525010728498863
276 -3.634877953280056e-06 -0.0007471808604616438 0.0022114077971004936
393 -0.01031422507246895 0.022063830369385064 0.001600374657923986
224 0.007033410153706231 0.007169215356698893 0.0014533638436395168
317 -0.00687786058986202 0.03244921292720478 0.020047608143559974
274 -7.797107729924798e-05 0.0023410618390742005 0.008066177843028505
204 0.0057322288425938 -0.008106634014195533 -0.0013681643469879584
290 -0.014927948718112281 -0.02056788194297426 -0.018686494034562146
289 0.0031540312971509244 -0.003491771770767146 -0.04180990134658394
203 0.004252215245361018 -0.0035390174759825674 0.004805099110296292
217 0.005865924502819967 0.0012577880801496373 0.011347045372266346
220 -0.00017868299321610595 -0.00471919482416841 0.005381054197414765
222 -0.006150561989074093 0.0035694817112156387 0.0016830484518092158
273 0.007524564738254721 -0.0021293870433641464 -0.007533165747934636
283 -0.012203162896174128 0.02913217659201225 0.027627491765457375
312 -0.02115068187821578 0.0054840305948428685 0.02414796912876907
389 0.003463108488108365 -0.020860682687904166 -0.008735544039022252
199 -0.0030064765264119016 0.009598969920623243 0.007257257874160885
200 0.007035348115212822 -0.006271626765521714 -0.003673552724787753
202 0.00018199692217471533 0.002669489723895413 -0.004402431043692187
280 -0.004817902912148791 0.004576853248077586 0.0023715382738757687
281 0.001780359883729123 -0.00883804562786144 0.027347016387198365
282 -0.0067819486142584725 0.01612252871981921 -0.008526350936700986
287 0.00474753193102619 -0.015228252015086086 0.006959888976637528
396 0.006244674467986826 0.020434399851504772 -0.00463495158940064
201 -0.001666227617594208 0.006793762474449788 -0.01220826372823915
284 -0.0032013450573545247 -0.013848574714523726 -0.015905697585033726
285 0.008425600586942307 -0.0017702095450126342 0.019381608609332576
286 0.0032746646342584 0.011874212570696518 0.023523524255573268
288 -0.02203384008312017 0.008984253779673934 -0.008672515666027687
395 -0.007724316015930924 -0.02732845233352989 -0.01505501272720136

Bonds

1 7 68 69
2 12 68 177
3 12 68 178
4 1 67 68
5 12 67 175
6 12 67 176
7 1 45 46
8 12 45 149
9 12 45 150
10 14 69 179
11 1 250 251
12 11 250 359
13 11 250 360
14 4 253 254
15 3 253 255
16 6 246 247
17 12 246 353
18 12 246 354
19 6 247 248
20 1 248 249
21 12 248 355
22 12 248 356
23 2 255 256
24 13 255 363
25 1 256 257
26 12 256 364
27 12 256 365
28 1 257 258
29 1 257 259
30 1 259 260
31 11 259 369
32 11 259 370
33 2 260 261
34 1 260 268
35 12 260 371
36 3 261 262
37 13 261 372
38 1 268 269
39 11 268 378
40 11 268 379
41 1 269 270
42 1 269 271
43 1 269 272
44 11 271 383
45 11 271 384
46 11 271 385
47 1 272 257
48 11 272 386
49 11 272 387
50 11 258 366
51 11 258 367
52 11 258 368
53 4 262 263
54 5 262 264
55 11 270 380
56 11 270 381
57 11 270 382
58 1 245 246
59 11 245 351
60 11 245 352
61 6 237 238
62 1 233 234
63 12 233 331
64 12 233 332
65 1 234 235
66 11 234 333
67 11 234 334
68 1 218 219
69 12 218 307
70 12 218 308
71 6 264 265
72 1 244 245
73 11 244 349
74 11 244 350
75 1 239 240
76 11 239 341
77 11 239 342
78 1 238 239
79 12 238 339
80 12 238 340
81 6 242 243
82 1 265 266
83 12 265 373
84 12 265 374
85 7 266 267
86 12 266 375
87 12 266 376
88 14 267 377
89 6 241 242
90 12 241 345
91 12 241 346
92 1 240 241
93 11 240 343
94 11 240 344
95 1 243 244
96 12 243 347
97 12 243 348
98 5 252 253
99 6 251 252
100 12 251 361
101 12 251 362
102 6 226 227
103 12 226 321
104 12 226 322
105 1 225 226
106 11 225 319
107 11 225 320
108 1 223 224
109 12 223 315
110 12 223 316
111 1 228 229
112 12 228 323
113 12 228 324
114 6 227 228
115 1 229 230
116 11 229 325
117 11 229 326
118 1 230 231
119 11 230 327
120 11 230 328
121 6 231 232
122 12 231 329
123 12 231 330
124 6 232 233
125 1 235 236
126 11 235 335
127 11 235 336
128 6 236 237
129 12 236 337
130 12 236 338
131 6 221 222
132 12 221 313
133 12 221 314
134 1 219 220
135 11 219 309
136 11 219 310
137 6 43 44
138 12 43 147
139 12 43 148
140 6 44 45
141 3 63 64
142 13 63 174
143 6 66 67
144 1 70 71
145 11 70 180
146 11 70 181
147 1 47 48
148 11 47 153
149 11 47 154
150 1 71 72
151 1 71 73
152 1 71 74
153 6 18 19
154 12 18 107
155 12 18 108
156 11 73 185
157 11 73 186
158 11 73 187
159 1 16 17
160 11 16 103
161 11 16 104
162 1 17 18
163 11 17 105
164 11 17 106
165 1 20 21
166 12 20 109
167 12 20 110
168 1 46 47
169 11 46 151
170 11 46 152
171 6 14 15
172 1 15 16
173 12 15 101
174 12 15 102
175 6 13 14
176 12 13 99
177 12 13 100
178 6 19 20
179 1 12 13
180 11 12 97
181 11 12 98
182 6 48 49
183 12 48 155
184 12 48 156
185 6 49 50
186 1 50 51
187 12 50 157
188 12 50 158
189 1 51 52
190 11 51 159
191 11 51 160
192 11 72 182
193 11 72 183
194 11 72 184
195 1 52 53
196 11 52 161
197 11 52 162
198 1 41 42
199 11 41 143
200 11 41 144
201 1 42 43
202 11 42 145
203 11 42 146
204 6 39 40
205 1 40 41
206 12 40 141
207 12 40 142
208 6 38 39
209 12 38 139
210 12 38 140
211 1 37 38
212 11 37 137
213 11 37 138
214 1 36 37
215 11 36 135
216 11 36 136
217 6 34 35
218 1 35 36
219 12 35 133
220 12 35 134
221 1 31 32
222 11 31 127
223 11 31 128
224 2 62 63
225 1 62 70
226 12 62 173
227 4 64 65
228 5 64 66
229 1 74 59
230 11 74 188
231 11 74 189
232 1 61 62
233 11 61 171
234 11 61 172
235 1 59 60
236 1 59 61
237 6 53 54
238 12 53 163
239 12 53 164
240 5 54 55
241 4 55 56
242 3 55 57
243 2 57 58
244 13 57 165
245 1 58 59
246 12 58 166
247 12 58 167
248 11 60 168
249 11 60 169
250 11 60 170
251 1 11 12
252 11 11 95
253 11 11 96
254 1 1 2
255 11 1 83
256 11 1 84
257 11 1 85
258 1 2 3
259 1 2 4
260 1 4 5
261 11 4 89
262 11 4 90
263 2 5 6
264 1 5 75
265 12 5 91
266 3 6 7
267 13 6 92
268 1 75 76
269 11 75 190
270 11 75 191
271 1 76 77
272 1 76 78
273 1 76 82
274 1 82 2
275 11 82 197
276 11 82 198
277 11 77 192
278 11 77 193
279 11 77 194
280 4 7 8
281 5 7 9
282 6 9 10
283 1 25 26
284 12 25 117
285 12 25 118
286 1 10 11
287 12 10 93
288 12 10 94
289 1 26 27
290 11 26 119
291 11 26 120
292 8 78 79
293 12 78 195
294 12 78 196
295 1 22 23
296 11 22 113
297 11 22 114
298 9 79 80
299 1 21 22
300 11 21 111
301 11 21 112
302 10 80 81
303 6 24 25
304 6 23 24
305 12 23 115
306 12 23 116
307 11 3 86
308 11 3 87
309 11 3 88
310 1 27 28
311 11 27 121
312 11 27 122
313 1 249 250
314 11 249 357
315 11 249 358
316 6 33 34
317 12 33 131
318 12 33 132
319 1 32 33
320 11 32 129
321 11 32 130
322 1 208 209
323 12 208 291
324 12 208 292
325 1 209 210
326 11 209 293
327 11 209 294
328 1 210 211
329 11 210 295
330 11 210 296
331 6 211 212
332 12 211 297
333 12 211 298
334 6 212 213
335 1 213 214
336 12 213 299
337 12 213 300
338 6 207 208
339 4 205 206
340 5 205 207
341 1 214 215
342 11 214 301
343 11 214 302
344 1 215 216
345 11 215 303
346 11 215 304
347 6 28 29
348 12 28 123
349 12 28 124
350 1 30 31
351 12 30 125
352 12 30 126
353 6 29 30
354 6 216 217
355 12 216 305
356 12 216 306
357 10 278 279
358 9 277 278
359 11 275 390
360 11 275 391
361 11 275 392
362 8 276 277
363 12 276 393
364 12 276 394
365 1 224 225
366 11 224 317
367 11 224 318
368 1 274 275
369 1 274 276
370 1 274 280
371 3 204 205
372 13 204 290
373 2 203 204
374 1 203 273
375 12 203 289
376 6 217 218
377 1 220 221
378 11 220 311
379 11 220 312
380 6 222 223
381 1 273 274
382 11 273 388
383 11 273 389
384 1 199 200
385 11 199 281
386 11 199 282
387 11 199 283
388 1 200 201
389 1 200 202
390 1 202 203
391 11 202 287
392 11 202 288
393 1 280 200
394 11 280 395
395 11 280 396
396 11 201 284
397 11 201 285
398 11 201 286

Angles

1 18 67 68 69
2 5 67 68 177
3 5 67 68 178
4 19 69 68 177
5 19 69 68 178
6 16 177 68 178
7 14 66 67 68
8 15 66 67 175
9 15 66 67 176
10 5 68 67 175
11 5 68 67 176
12 16 175 67 176
13 14 44 45 46
14 15 44 45 149
15 15 44 45 150
16 5 46 45 149
17 5 46 45 150
18 16 149 45 150
19 20 68 69 179
20 3 249 250 251
21 1 249 250 359
22 1 249 250 360
23 1 251 250 359
24 1 251 250 360
25 2 359 250 360
26 12 252 253 254
27 11 252 253 255
28 10 254 253 255
29 14 245 246 247
30 5 245 246 353
31 5 245 246 354
32 15 247 246 353
33 15 247 246 354
34 16 353 246 354
35 17 246 247 248
36 14 247 248 249
37 15 247 248 355
38 15 247 248 356
39 5 249 248 355
40 5 249 248 356
41 16 355 248 356
42 7 253 255 256
43 9 253 255 363
44 8 256 255 363
45 4 255 256 257
46 6 255 256 364
47 6 255 256 365
48 5 257 256 364
49 5 257 256 365
50 16 364 256 365
51 3 256 257 258
52 3 256 257 259
53 3 256 257 272
54 3 258 257 259
55 3 258 257 272
56 3 259 257 272
57 3 257 259 260
58 1 257 259 369
59 1 257 259 370
60 1 260 259 369
61 1 260 259 370
62 2 369 259 370
63 4 259 260 261
64 3 259 260 268
65 5 259 260 371
66 4 261 260 268
67 6 261 260 371
68 5 268 260 371
69 7 260 261 262
70 8 260 261 372
71 9 262 261 372
72 3 260 268 269
73 1 260 268 378
74 1 260 268 379
75 1 269 268 378
76 1 269 268 379
77 2 378 268 379
78 3 268 269 270
79 3 268 269 271
80 3 268 269 272
81 3 270 269 271
82 3 270 269 272
83 3 271 269 272
84 1 269 271 383
85 1 269 271 384
86 1 269 271 385
87 2 383 271 384
88 2 383 271 385
89 2 384 271 385
90 3 269 272 257
91 1 269 272 386
92 1 269 272 387
93 1 257 272 386
94 1 257 272 387
95 2 386 272 387
96 1 257 258 366
97 1 257 258 367
98 1 257 258 368
99 2 366 258 367
100 2 366 258 368
101 2 367 258 368
102 10 261 262 263
103 11 261 262 264
104 12 263 262 264
105 1 269 270 380
106 1 269 270 381
107 1 269 270 382
108 2 380 270 381
109 2 380 270 382
110 2 381 270 382
111 3 244 245 246
112 1 244 245 351
113 1 244 245 352
114 1 246 245 351
115 1 246 245 352
116 2 351 245 352
117 17 236 237 238
118 14 232 233 234
119 15 232 233 331
120 15 232 233 332
121 5 234 233 331
122 5 234 233 332
123 16 331 233 332
124 3 233 234 235
125 1 233 234 333
126 1 233 234 334
127 1 235 234 333
128 1 235 234 334
129 2 333 234 334
130 14 217 218 219
131 15 217 218 307
132 15 217 218 308
133 5 219 218 307
134 5 219 218 308
135 16 307 218 308
136 13 262 264 265
137 3 243 244 245
138 1 243 244 349
139 1 243 244 350
140 1 245 244 349
141 1 245 244 350
142 2 349 244 350
143 3 238 239 240
144 1 238 239 341
145 1 238 239 342
146 1 240 239 341
147 1 240 239 342
148 2 341 239 342
149 14 237 238 239
150 15 237 238 339
151 15 237 238 340
152 5 239 238 339
153 5 239 238 340
154 16 339 238 340
155 17 241 242 243
156 14 264 265 266
157 15 264 265 373
158 15 264 265 374
159 5 266 265 373
160 5 266 265 374
161 16 373 265 374
162 18 265 266 267
163 5 265 266 375
164 5 265 266 376
165 19 267 266 375
166 19 267 266 376
167 16 375 266 376
168 20 266 267 377
169 14 240 241 242
170 5 240 241 345
171 5 240 241 346
172 15 242 241 345
173 15 242 241 346
174 16 345 241 346
175 3 239 240 241
176 1 239 240 343
177 1 239 240 344
178 1 241 240 343
179 1 241 240 344
180 2 343 240 344
181 14 242 243 244
182 15 242 243 347
183 15 242 243 348
184 5 244 243 347
185 5 244 243 348
186 16 347 243 348
187 13 251 252 253
188 14 250 251 252
189 5 250 251 361
190 5 250 251 362
191 15 252 251 361
192 15 252 251 362
193 16 361 251 362
194 14 225 226 227
195 5 225 226 321
196 5 225 226 322
197 15 227 226 321
198 15 227 226 322
199 16 321 226 322
200 3 224 225 226
201 1 224 225 319
202 1 224 225 320
203 1 226 225 319
204 1 226 225 320
205 2 319 225 320
206 14 222 223 224
207 15 222 223 315
208 15 222 223 316
209 5 224 223 315
210 5 224 223 316
211 16 315 223 316
212 14 227 228 229
213 15 227 228 323
214 15 227 228 324
215 5 229 228 323
216 5 229 228 324
217 16 323 228 324
218 17 226 227 228
219 3 228 229 230
220 1 228 229 325
221 1 228 229 326
222 1 230 229 325
223 1 230 229 326
224 2 325 229 326
225 3 229 230 231
226 1 229 230 327
227 1 229 230 328
228 1 231 230 327
229 1 231 230 328
230 2 327 230 328
231 14 230 231 232
232 5 230 231 329
233 5 230 231 330
234 15 232 231 329
235 15 232 231 330
236 16 329 231 330
237 17 231 232 233
238 3 234 235 236
239 1 234 235 335
240 1 234 235 336
241 1 236 235 335
242 1 236 235 336
243 2 335 235 336
244 14 235 236 237
245 5 235 236 337
246 5 235 236 338
247 15 237 236 337
248 15 237 236 338
249 16 337 236 338
250 14 220 221 222
251 5 220 221 313
252 5 220 221 314
253 15 222 221 313
254 15 222 221 314
255 16 313 221 314
256 3 218 219 220
257 1 218 219 309
258 1 218 219 310
259 1 220 219 309
260 1 220 219 310
261 2 309 219 310
262 14 42 43 44
263 5 42 43 147
264 5 42 43 148
265 15 44 43 147
266 15 44 43 148
267 16 147 43 148
268 17 43 44 45
269 7 62 63 64
270 8 62 63 174
271 9 64 63 174
272 13 64 66 67
273 3 62 70 71
274 1 62 70 180
275 1 62 70 181
276 1 71 70 180
277 1 71 70 181
278 2 180 70 181
279 3 46 47 48
280 1 46 47 153
281 1 46 47 154
282 1 48 47 153
283 1 48 47 154
284 2 153 47 154
285 3 70 71 72
286 3 70 71 73
287 3 70 71 74
288 3 72 71 73
289 3 72 71 74
290 3 73 71 74
291 14 17 18 19
292 5 17 18 107
293 5 17 18 108
294 15 19 18 107
295 15 19 18 108
296 16 107 18 108
297 1 71 73 185
298 1 71 73 186
299 1 71 73 187
300 2 185 73 186
301 2 185 73 187
302 2 186 73 187
303 3 15 16 17
304 1 15 16 103
305 1 15 16 104
306 1 17 16 103
307 1 17 16 104
308 2 103 16 104
309 3 16 17 18
310 1 16 17 105
311 1 16 17 106
312 1 18 17 105
313 1 18 17 106
314 2 105 17 106
315 14 19 20 21
316 15 19 20 109
317 15 19 20 110
318 5 21 20 109
319 5 21 20 110
320 16 109 20 110
321 3 45 46 47
322 1 45 46 151
323 1 45 46 152
324 1 47 46 151
325 1 47 46 152
326 2 151 46 152
327 17 13 14 15
328 14 14 15 16
329 15 14 15 101
330 15 14 15 102
331 5 16 15 101
332 5 16 15 102
333 16 101 15 102
334 14 12 13 14
335 5 12 13 99
336 5 12 13 100
337 15 14 13 99
338 15 14 13 100
339 16 99 13 100
340 17 18 19 20
341 3 11 12 13
342 1 11 12 97
343 1 11 12 98
344 1 13 12 97
345 1 13 12 98
346 2 97 12 98
347 14 47 48 49
348 5 47 48 155
349 5 47 48 156
350 15 49 48 155
351 15 49 48 156
352 16 155 48 156
353 17 48 49 50
354 14 49 50 51
355 15 49 50 157
356 15 49 50 158
357 5 51 50 157
358 5 51 50 158
359 16 157 50 158
360 3 50 51 52
361 1 50 51 159
362 1 50 51 160
363 1 52 51 159
364 1 52 51 160
365 2 159 51 160
366 1 71 72 182
367 1 71 72 183
368 1 71 72 184
369 2 182 72 183
370 2 182 72 184
371 2 183 72 184
372 3 51 52 53
373 1 51 52 161
374 1 51 52 162
375 1 53 52 161
376 1 53 52 162
377 2 161 52 162
378 3 40 41 42
379 1 40 41 143
380 1 40 41 144
381 1 42 41 143
382 1 42 41 144
383 2 143 41 144
384 3 41 42 43
385 1 41 42 145
386 1 41 42 146
387 1 43 42 145
388 1 43 42 146
389 2 145 42 146
390 17 38 39 40
391 14 39 40 41
392 15 39 40 141
393 15 39 40 142
394 5 41 40 141
395 5 41 40 142
396 16 141 40 142
397 14 37 38 39
398 5 37 38 139
399 5 37 38 140
400 15 39 38 139
401 15 39 38 140
402 16 139 38 140
403 3 36 37 38
404 1 36 37 137
405 1 36 37 138
406 1 38 37 137
407 1 38 37 138
408 2 137 37 138
409 3 35 36 37
410 1 35 36 135
411 1 35 36 136
412 1 37 36 135
413 1 37 36 136
414 2 135 36 136
415 17 33 34 35
416 14 34 35 36
417 15 34 35 133
418 15 34 35 134
419 5 36 35 133
420 5 36 35 134
421 16 133 35 134
422 3 30 31 32
423 1 30 31 127
424 1 30 31 128
425 1 32 31 127
426 1 32 31 128
427 2 127 31 128
428 4 61 62 63
429 3 61 62 70
430 5 61 62 173
431 4 63 62 70
432 6 63 62 173
433 5 70 62 173
434 10 63 64 65
435 11 63 64 66
436 12 65 64 66
437 3 71 74 59
438 1 71 74 188
439 1 71 74 189
440 1 59 74 188
441 1 59 74 189
442 2 188 74 189
443 3 59 61 62
444 1 59 61 171
445 1 59 61 172
446 1 62 61 171
447 1 62 61 172
448 2 171 61 172
449 3 58 59 60
450 3 58 59 61
451 3 58 59 74
452 3 60 59 61
453 3 60 59 74
454 3 61 59 74
455 14 52 53 54
456 5 52 53 163
457 5 52 53 164
458 15 54 53 163
459 15 54 53 164
460 16 163 53 164
461 13 53 54 55
462 12 54 55 56
463 11 54 55 57
464 10 56 55 57
465 7 55 57 58
466 9 55 57 165
467 8 58 57 165
468 4 57 58 59
469 6 57 58 166
470 6 57 58 167
471 5 59 58 166
472 5 59 58 167
473 16 166 58 167
474 1 59 60 168
475 1 59 60 169
476 1 59 60 170
477 2 168 60 169
478 2 168 60 170
479 2 169 60 170
480 3 10 11 12
481 1 10 11 95
482 1 10 11 96
483 1 12 11 95
484 1 12 11 96
485 2 95 11 96
486 1 2 1 83
487 1 2 1 84
488 1 2 1 85
489 2 83 1 84
490 2 83 1 85
491 2 84 1 85
492 3 1 2 3
493 3 1 2 4
494 3 1 2 82
495 3 3 2 4
496 3 3 2 82
497 3 4 2 82
498 3 2 4 5
499 1 2 4 89
500 1 2 4 90
501 1 5 4 89
502 1 5 4 90
503 2 89 4 90
504 4 4 5 6
505 3 4 5 75
506 5 4 5 91
507 4 6 5 75
508 6 6 5 91
509 5 75 5 91
510 7 5 6 7
511 8 5 6 92
512 9 7 6 92
513 3 5 75 76
514 1 5 75 190
515 1 5 75 191
516 1 76 75 190
517 1 76 75 191
518 2 190 75 191
519 3 75 76 77
520 3 75 76 78
521 3 75 76 82
522 3 77 76 78
523 3 77 76 82
524 3 78 76 82
525 3 76 82 2
526 1 76 82 197
527 1 76 82 198
528 1 2 82 197
529 1 2 82 198
530 2 197 82 198
531 1 76 77 192
532 1 76 77 193
533 1 76 77 194
534 2 192 77 193
535 2 192 77 194
536 2 193 77 194
537 10 6 7 8
538 11 6 7 9
539 12 8 7 9
540 13 7 9 10
541 14 24 25 26
542 15 24 25 117
543 15 24 25 118
544 5 26 25 117
545 5 26 25 118
546 16 117 25 118
547 14 9 10 11
548 15 9 10 93
549 15 9 10 94
550 5 11 10 93
551 5 11 10 94
552 16 93 10 94
553 3 25 26 27
554 1 25 26 119
555 1 25 26 120
556 1 27 26 119
557 1 27 26 120
558 2 119 26 120
559 21 76 78 79
560 5 76 78 195
561 5 76 78 196
562 22 79 78 195
563 22 79 78 196
564 16 195 78 196
565 3 21 22 23
566 1 21 22 113
567 1 21 22 114
568 1 23 22 113
569 1 23 22 114
570 2 113 22 114
571 23 78 79 80
572 3 20 21 22
573 1 20 21 111
574 1 20 21 112
575 1 22 21 111
576 1 22 21 112
577 2 111 21 112
578 24 79 80 81
579 17 23 24 25
580 14 22 23 24
581 5 22 23 115
582 5 22 23 116
583 15 24 23 115
584 15 24 23 116
585 16 115 23 116
586 1 2 3 86
587 1 2 3 87
588 1 2 3 88
589 2 86 3 87
590 2 86 3 88
591 2 87 3 88
592 3 26 27 28
593 1 26 27 121
594 1 26 27 122
595 1 28 27 121
596 1 28 27 122
597 2 121 27 122
598 3 248 249 250
599 1 248 249 357
600 1 248 249 358
601 1 250 249 357
602 1 250 249 358
603 2 357 249 358
604 14 32 33 34
605 5 32 33 131
606 5 32 33 132
607 15 34 33 131
608 15 34 33 132
609 16 131 33 132
610 3 31 32 33
611 1 31 32 129
612 1 31 32 130
613 1 33 32 129
614 1 33 32 130
615 2 129 32 130
616 14 207 208 209
617 15 207 208 291
618 15 207 208 292
619 5 209 208 291
620 5 209 208 292
621 16 291 208 292
622 3 208 209 210
623 1 208 209 293
624 1 208 209 294
625 1 210 209 293
626 1 210 209 294
627 2 293 209 294
628 3 209 210 211
629 1 209 210 295
630 1 209 210 296
631 1 211 210 295
632 1 211 210 296
633 2 295 210 296
634 14 210 211 212
635 5 210 211 297
636 5 210 211 298
637 15 212 211 297
638 15 212 211 298
639 16 297 211 298
640 17 211 212 213
641 14 212 213 214
642 15 212 213 299
643 15 212 213 300
644 5 214 213 299
645 5 214 213 300
646 16 299 213 300
647 13 205 207 208
648 10 204 205 206
649 11 204 205 207
650 12 206 205 207
651 3 213 214 215
652 1 213 214 301
653 1 213 214 302
654 1 215 214 301
655 1 215 214 302
656 2 301 214 302
657 3 214 215 216
658 1 214 215 303
659 1 214 215 304
660 1 216 215 303
661 1 216 215 304
662 2 303 215 304
663 14 27 28 29
664 5 27 28 123
665 5 27 28 124
666 15 29 28 123
667 15 29 28 124
668 16 123 28 124
669 14 29 30 31
670 15 29 30 125
671 15 29 30 126
672 5 31 30 125
673 5 31 30 126
674 16 125 30 126
675 17 28 29 30
676 14 215 216 217
677 5 215 216 305
678 5 215 216 306
679 15 217 216 305
680 15 217 216 306
681 16 305 216 306
682 24 277 278 279
683 23 276 277 278
684 1 274 275 390
685 1 274 275 391
686 1 274 275 392
687 2 390 275 391
688 2 390 275 392
689 2 391 275 392
690 21 274 276 277
691 5 274 276 393
692 5 274 276 394
693 22 277 276 393
694 22 277 276 394
695 16 393 276 394
696 3 223 224 225
697 1 223 224 317
698 1 223 224 318
699 1 225 224 317
700 1 225 224 318
701 2 317 224 318
702 3 273 274 275
703 3 273 274 276
704 3 273 274 280
705 3 275 274 276
706 3 275 274 280
707 3 276 274 280
708 7 203 204 205
709 8 203 204 290
710 9 205 204 290
711 4 202 203 204
712 3 202 203 273
713 5 202 203 289
714 4 204 203 273
715 6 204 203 289
716 5 273 203 289
717 17 216 217 218
718 3 219 220 221
719 1 219 220 311
720 1 219 220 312
721 1 221 220 311
722 1 221 220 312
723 2 311 220 312
724 17 221 222 223
725 3 203 273 274
726 1 203 273 388
727 1 203 273 389
728 1 274 273 388
729 1 274 273 389
730 2 388 273 389
731 1 200 199 281
732 1 200 199 282
733 1 200 199 283
734 2 281 199 282
735 2 281 199 283
736 2 282 199 283
737 3 199 200 201
738 3 199 200 202
739 3 199 200 280
740 3 201 200 202
741 3 201 200 280
742 3 202 200 280
743 3 200 202 203
744 1 200 202 287
745 1 200 202 288
746 1 203 202 287
747 1 203 202 288
748 2 287 202 288
749 3 274 280 200
750 1 274 280 395
751 1 274 280 396
752 1 200 280 395
753 1 200 280 396
754 2 395 280 396
755 1 200 201 284
756 1 200 201 285
757 1 200 201 286
758 2 284 201 285
759 2 284 201 286
760 2 285 201 286

Dihedrals

1 20 67 68 69 179
2 21 177 68 69 179
3 21 178 68 69 179
4 17 66 67 68 69
5 18 66 67 68 177
6 18 66 67 68 178
7 19 175 67 68 69
8 3 175 67 68 177
9 3 175 67 68 178
10 19 176 67 68 69
11 3 176 67 68 177
12 3 176 67 68 178
13 3 44 45 46 47
14 13 44 45 46 151
15 13 44 45 46 152
16 3 149 45 46 47
17 3 149 45 46 151
18 3 149 45 46 152
19 3 150 45 46 47
20 3 150 45 46 151
21 3 150 45 46 152
22 3 249 250 251 252
23 3 249 250 251 361
24 3 249 250 251 362
25 13 359 250 251 252
26 3 359 250 251 361
27 3 359 250 251 362
28 13 360 250 251 252
29 3 360 250 251 361
30 3 360 250 251 362
31 7 252 253 255 256
32 7 252 253 255 363
33 7 254 253 255 256
34 8 254 253 255 363
35 15 245 246 247 248
36 16 353 246 247 248
37 16 354 246 247 248
38 15 246 247 248 249
39 16 246 247 248 355
40 16 246 247 248 356
41 3 247 248 249 250
42 13 247 248 249 357
43 13 247 248 249 358
44 3 355 248 249 250
45 3 355 248 249 357
46 3 355 248 249 358
47 3 356 248 249 250
48 3 356 248 249 357
49 3 356 248 249 358
50 4 253 255 256 257
51 6 253 255 256 364
52 6 253 255 256 365
53 5 363 255 256 257
54 5 363 255 256 364
55 5 363 255 256 365
56 3 255 256 257 258
57 3 255 256 257 259
58 3 255 256 257 272
59 3 364 256 257 258
60 3 364 256 257 259
61 3 364 256 257 272
62 3 365 256 257 258
63 3 365 256 257 259
64 3 365 256 257 272
65 1 256 257 258 366
66 1 256 257 258 367
67 1 256 257 258 368
68 1 259 257 258 366
69 1 259 257 258 367
70 1 259 257 258 368
71 1 272 257 258 366
72 1 272 257 258 367
73 1 272 257 258 368
74 2 256 257 259 260
75 1 256 257 259 369
76 1 256 257 259 370
77 2 258 257 259 260
78 1 258 257 259 369
79 1 258 257 259 370
80 2 272 257 259 260
81 1 272 257 259 369
82 1 272 257 259 370
83 3 257 259 260 261
84 2 257 259 260 268
85 3 257 259 260 371
86 3 369 259 260 261
87 1 369 259 260 268
88 3 369 259 260 371
89 3 370 259 260 261
90 1 370 259 260 268
91 3 370 259 260 371
92 4 259 260 261 262
93 5 259 260 261 372
94 4 268 260 261 262
95 5 268 260 261 372
96 6 371 260 261 262
97 5 371 260 261 372
98 2 259 260 268 269
99 1 259 260 268 378
100 1 259 260 268 379
101 3 261 260 268 269
102 3 261 260 268 378
103 3 261 260 268 379
104 3 371 260 268 269
105 3 371 260 268 378
106 3 371 260 268 379
107 7 260 261 262 263
108 7 260 261 262 264
109 8 372 261 262 263
110 7 372 261 262 264
111 2 260 268 269 270
112 2 260 268 269 271
113 2 260 268 269 272
114 1 378 268 269 270
115 1 378 268 269 271
116 1 378 268 269 272
117 1 379 268 269 270
118 1 379 268 269 271
119 1 379 268 269 272
120 1 268 269 270 380
121 1 268 269 270 381
122 1 268 269 270 382
123 1 271 269 270 380
124 1 271 269 270 381
125 1 271 269 270 382
126 1 272 269 270 380
127 1 272 269 270 381
128 1 272 269 270 382
129 1 268 269 271 383
130 1 268 269 271 384
131 1 268 269 271 385
132 1 270 269 271 383
133 1 270 269 271 384
134 1 270 269 271 385
135 1 272 269 271 383
136 1 272 269 271 384
137 1 272 269 271 385
138 2 268 269 272 257
139 1 268 269 272 386
140 1 268 269 272 387
141 2 270 269 272 257
142 1 270 269 272 386
143 1 270 269 272 387
144 2 271 269 272 257
145 1 271 269 272 386
146 1 271 269 272 387
147 2 269 272 257 256
148 2 269 272 257 258
149 2 269 272 257 259
150 1 386 272 257 256
151 1 386 272 257 258
152 1 386 272 257 259
153 1 387 272 257 256
154 1 387 272 257 258
155 1 387 272 257 259
156 9 261 262 264 265
157 10 263 262 264 265
158 3 244 245 246 247
159 3 244 245 246 353
160 3 244 245 246 354
161 13 351 245 246 247
162 3 351 245 246 353
163 3 351 245 246 354
164 13 352 245 246 247
165 3 352 245 246 353
166 3 352 245 246 354
167 15 236 237 238 239
168 16 236 237 238 339
169 16 236 237 238 340
170 3 232 233 234 235
171 13 232 233 234 333
172 13 232 233 234 334
173 3 331 233 234 235
174 3 331 233 234 333
175 3 331 233 234 334
176 3 332 233 234 235
177 3 332 233 234 333
178 3 332 233 234 334
179 2 233 234 235 236
180 1 233 234 235 335
181 1 233 234 235 336
182 1 333 234 235 236
183 14 333 234 235 335
184 14 333 234 235 336
185 1 334 234 235 236
186 14 334 234 235 335
187 14 334 234 235 336
188 3 217 218 219 220
189 13 217 218 219 309
190 13 217 218 219 310
191 3 307 218 219 220
192 3 307 218 219 309
193 3 307 218 219 310
194 3 308 218 219 220
195 3 308 218 219 309
196 3 308 218 219 310
197 11 262 264 265 266
198 12 262 264 265 373
199 12 262 264 265 374
200 2 243 244 245 246
201 1 243 244 245 351
202 1 243 244 245 352
203 1 349 244 245 246
204 14 349 244 245 351
205 14 349 244 245 352
206 1 350 244 245 246
207 14 350 244 245 351
208 14 350 244 245 352
209 2 238 239 240 241
210 1 238 239 240 343
211 1 238 239 240 344
212 1 341 239 240 241
213 14 341 239 240 343
214 14 341 239 240 344
215 1 342 239 240 241
216 14 342 239 240 343
217 14 342 239 240 344
218 3 237 238 239 240
219 13 237 238 239 341
220 13 237 238 239 342
221 3 339 238 239 240
222 3 339 238 239 341
223 3 339 238 239 342
224 3 340 238 239 240
225 3 340 238 239 341
226 3 340 238 239 342
227 15 241 242 243 244
228 16 241 242 243 347
229 16 241 242 243 348
230 17 264 265 266 267
231 18 264 265 266 375
232 18 264 265 266 376
233 19 373 265 266 267
234 3 373 265 266 375
235 3 373 265 266 376
236 19 374 265 266 267
237 3 374 265 266 375
238 3 374 265 266 376
239 20 265 266 267 377
240 21 375 266 267 377
241 21 376 266 267 377
242 15 240 241 242 243
243 16 345 241 242 243
244 16 346 241 242 243
245 3 239 240 241 242
246 3 239 240 241 345
247 3 239 240 241 346
248 13 343 240 241 242
249 3 343 240 241 345
250 3 343 240 241 346
251 13 344 240 241 242
252 3 344 240 241 345
253 3 344 240 241 346
254 3 242 243 244 245
255 13 242 243 244 349
256 13 242 243 244 350
257 3 347 243 244 245
258 3 347 243 244 349
259 3 347 243 244 350
260 3 348 243 244 245
261 3 348 243 244 349
262 3 348 243 244 350
263 10 251 252 253 254
264 9 251 252 253 255
265 11 250 251 252 253
266 12 361 251 252 253
267 12 362 251 252 253
268 15 225 226 227 228
269 16 321 226 227 228
270 16 322 226 227 228
271 3 224 225 226 227
272 3 224 225 226 321
273 3 224 225 226 322
274 13 319 225 226 227
275 3 319 225 226 321
276 3 319 225 226 322
277 13 320 225 226 227
278 3 320 225 226 321
279 3 320 225 226 322
280 3 222 223 224 225
281 13 222 223 224 317
282 13 222 223 224 318
283 3 315 223 224 225
284 3 315 223 224 317
285 3 315 223 224 318
286 3 316 223 224 225
287 3 316 223 224 317
288 3 316 223 224 318
289 3 227 228 229 230
290 13 227 228 229 325
291 13 227 228 229 326
292 3 323 228 229 230
293 3 323 228 229 325
294 3 323 228 229 326
295 3 324 228 229 230
296 3 324 228 229 325
297 3 324 228 229 326
298 15 226 227 228 229
299 16 226 227 228 323
300 16 226 227 228 324
301 2 228 229 230 231
302 1 228 229 230 327
303 1 228 229 230 328
304 1 325 229 230 231
305 14 325 229 230 327
306 14 325 229 230 328
307 1 326 229 230 231
308 14 326 229 230 327
309 14 326 229 230 328
310 3 229 230 231 232
311 3 229 230 231 329
312 3 229 230 231 330
313 13 327 230 231 232
314 3 327 230 231 329
315 3 327 230 231 330
316 13 328 230 231 232
317 3 328 230 231 329
318 3 328 230 231 330
319 15 230 231 232 233
320 16 329 231 232 233
321 16 330 231 232 233
322 15 231 232 233 234
323 16 231 232 233 331
324 16 231 232 233 332
325 3 234 235 236 237
326 3 234 235 236 337
327 3 234 235 236 338
328 13 335 235 236 237
329 3 335 235 236 337
330 3 335 235 236 338
331 13 336 235 236 237
332 3 336 235 236 337
333 3 336 235 236 338
334 15 235 236 237 238
335 16 337 236 237 238
336 16 338 236 237 238
337 15 220 221 222 223
338 16 313 221 222 223
339 16 314 221 222 223
340 2 218 219 220 221
341 1 218 219 220 311
342 1 218 219 220 312
343 1 309 219 220 221
344 14 309 219 220 311
345 14 309 219 220 312
346 1 310 219 220 221
347 14 310 219 220 311
348 14 310 219 220 312
349 15 42 43 44 45
350 16 147 43 44 45
351 16 148 43 44 45
352 15 43 44 45 46
353 16 43 44 45 149
354 16 43 44 45 150
355 7 62 63 64 65
356 7 62 63 64 66
357 8 174 63 64 65
358 7 174 63 64 66
359 11 64 66 67 68
360 12 64 66 67 175
361 12 64 66 67 176
362 2 62 70 71 72
363 2 62 70 71 73
364 2 62 70 71 74
365 1 180 70 71 72
366 1 180 70 71 73
367 1 180 70 71 74
368 1 181 70 71 72
369 1 181 70 71 73
370 1 181 70 71 74
371 3 46 47 48 49
372 3 46 47 48 155
373 3 46 47 48 156
374 13 153 47 48 49
375 3 153 47 48 155
376 3 153 47 48 156
377 13 154 47 48 49
378 3 154 47 48 155
379 3 154 47 48 156
380 1 70 71 72 182
381 1 70 71 72 183
382 1 70 71 72 184
383 1 73 71 72 182
384 1 73 71 72 183
385 1 73 71 72 184
386 1 74 71 72 182
387 1 74 71 72 183
388 1 74 71 72 184
389 1 70 71 73 185
390 1 70 71 73 186
391 1 70 71 73 187
392 1 72 71 73 185
393 1 72 71 73 186
394 1 72 71 73 187
395 1 74 71 73 185
396 1 74 71 73 186
397 1 74 71 73 187
398 2 70 71 74 59
399 1 70 71 74 188
400 1 70 71 74 189
401 2 72 71 74 59
402 1 72 71 74 188
403 1 72 71 74 189
404 2 73 71 74 59
405 1 73 71 74 188
406 1 73 71 74 189
407 15 17 18 19 20
408 16 107 18 19 20
409 16 108 18 19 20
410 2 15 16 17 18
411 1 15 16 17 105
412 1 15 16 17 106
413 1 103 16 17 18
414 14 103 16 17 105
415 14 103 16 17 106
416 1 104 16 17 18
417 14 104 16 17 105
418 14 104 16 17 106
419 3 16 17 18 19
420 3 16 17 18 107
421 3 16 17 18 108
422 13 105 17 18 19
423 3 105 17 18 107
424 3 105 17 18 108
425 13 106 17 18 19
426 3 106 17 18 107
427 3 106 17 18 108
428 3 19 20 21 22
429 13 19 20 21 111
430 13 19 20 21 112
431 3 109 20 21 22
432 3 109 20 21 111
433 3 109 20 21 112
434 3 110 20 21 22
435 3 110 20 21 111
436 3 110 20 21 112
437 2 45 46 47 48
438 1 45 46 47 153
439 1 45 46 47 154
440 1 151 46 47 48
441 14 151 46 47 153
442 14 151 46 47 154
443 1 152 46 47 48
444 14 152 46 47 153
445 14 152 46 47 154
446 15 13 14 15 16
447 16 13 14 15 101
448 16 13 14 15 102
449 3 14 15 16 17
450 13 14 15 16 103
451 13 14 15 16 104
452 3 101 15 16 17
453 3 101 15 16 103
454 3 101 15 16 104
455 3 102 15 16 17
456 3 102 15 16 103
457 3 102 15 16 104
458 15 12 13 14 15
459 16 99 13 14 15
460 16 100 13 14 15
461 15 18 19 20 21
462 16 18 19 20 109
463 16 18 19 20 110
464 3 11 12 13 14
465 3 11 12 13 99
466 3 11 12 13 100
467 13 97 12 13 14
468 3 97 12 13 99
469 3 97 12 13 100
470 13 98 12 13 14
471 3 98 12 13 99
472 3 98 12 13 100
473 15 47 48 49 50
474 16 155 48 49 50
475 16 156 48 49 50
476 15 48 49 50 51
477 16 48 49 50 157
478 16 48 49 50 158
479 3 49 50 51 52
480 13 49 50 51 159
481 13 49 50 51 160
482 3 157 50 51 52
483 3 157 50 51 159
484 3 157 50 51 160
485 3 158 50 51 52
486 3 158 50 51 159
487 3 158 50 51 160
488 2 50 51 52 53
489 1 50 51 52 161
490 1 50 51 52 162
491 1 159 51 52 53
492 14 159 51 52 161
493 14 159 51 52 162
494 1 160 51 52 53
495 14 160 51 52 161
496 14 160 51 52 162
497 3 51 52 53 54
498 3 51 52 53 163
499 3 51 52 53 164
500 13 161 52 53 54
501 3 161 52 53 163
502 3 161 52 53 164
503 13 162 52 53 54
504 3 162 52 53 163
505 3 162 52 53 164
506 2 40 41 42 43
507 1 40 41 42 145
508 1 40 41 42 146
509 1 143 41 42 43
510 14 143 41 42 145
511 14 143 41 42 146
512 1 144 41 42 43
513 14 144 41 42 145
514 14 144 41 42 146
515 3 41 42 43 44
516 3 41 42 43 147
517 3 41 42 43 148
518 13 145 42 43 44
519 3 145 42 43 147
520 3 145 42 43 148
521 13 146 42 43 44
522 3 146 42 43 147
523 3 146 42 43 148
524 15 38 39 40 41
525 16 38 39 40 141
526 16 38 39 40 142
527 3 39 40 41 42
528 13 39 40 41 143
529 13 39 40 41 144
530 3 141 40 41 42
531 3 141 40 41 143
532 3 141 40 41 144
533 3 142 40 41 42
534 3 142 40 41 143
535 3 142 40 41 144
536 15 37 38 39 40
537 16 139 38 39 40
538 16 140 38 39 40
539 3 36 37 38 39
540 3 36 37 38 139
541 3 36 37 38 140
542 13 137 37 38 39
543 3 137 37 38 139
544 3 137 37 38 140
545 13 138 37 38 39
546 3 138 37 38 139
547 3 138 37 38 140
548 2 35 36 37 38
549 1 35 36 37 137
550 1 35 36 37 138
551 1 135 36 37 38
552 14 135 36 37 137
553 14 135 36 37 138
554 1 136 36 37 38
555 14 136 36 37 137
556 14 136 36 37 138
557 15 33 34 35 36
558 16 33 34 35 133
559 16 33 34 35 134
560 3 34 35 36 37
561 13 34 35 36 135
562 13 34 35 36 136
563 3 133 35 36 37
564 3 133 35 36 135
565 3 133 35 36 136
566 3 134 35 36 37
567 3 134 35 36 135
568 3 134 35 36 136
569 2 30 31 32 33
570 1 30 31 32 129
571 1 30 31 32 130
572 1 127 31 32 33
573 14 127 31 32 129
574 14 127 31 32 130
575 1 128 31 32 33
576 14 128 31 32 129
577 14 128 31 32 130
578 4 61 62 63 64
579 5 61 62 63 174
580 4 70 62 63 64
581 5 70 62 63 174
582 6 173 62 63 64
583 5 173 62 63 174
584 2 61 62 70 71
585 1 61 62 70 180
586 1 61 62 70 181
587 3 63 62 70 71
588 3 63 62 70 180
589 3 63 62 70 181
590 3 173 62 70 71
591 3 173 62 70 180
592 3 173 62 70 181
593 9 63 64 66 67
594 10 65 64 66 67
595 2 71 74 59 58
596 2 71 74 59 60
597 2 71 74 59 61
598 1 188 74 59 58
599 1 188 74 59 60
600 1 188 74 59 61
601 1 189 74 59 58
602 1 189 74 59 60
603 1 189 74 59 61
604 3 59 61 62 63
605 2 59 61 62 70
606 3 59 61 62 173
607 3 171 61 62 63
608 1 171 61 62 70
609 3 171 61 62 173
610 3 172 61 62 63
611 1 172 61 62 70
612 3 172 61 62 173
613 1 58 59 60 168
614 1 58 59 60 169
615 1 58 59 60 170
616 1 61 59 60 168
617 1 61 59 60 169
618 1 61 59 60 170
619 1 74 59 60 168
620 1 74 59 60 169
621 1 74 59 60 170
622 2 58 59 61 62
623 1 58 59 61 171
624 1 58 59 61 172
625 2 60 59 61 62
626 1 60 59 61 171
627 1 60 59 61 172
628 2 74 59 61 62
629 1 74 59 61 171
630 1 74 59 61 172
631 11 52 53 54 55
632 12 163 53 54 55
633 12 164 53 54 55
634 10 53 54 55 56
635 9 53 54 55 57
636 7 54 55 57 58
637 7 54 55 57 165
638 7 56 55 57 58
639 8 56 55 57 165
640 4 55 57 58 59
641 6 55 57 58 166
642 6 55 57 58 167
643 5 165 57 58 59
644 5 165 57 58 166
645 5 165 57 58 167
646 3 57 58 59 60
647 3 57 58 59 61
648 3 57 58 59 74
649 3 166 58 59 60
650 3 166 58 59 61
651 3 166 58 59 74
652 3 167 58 59 60
653 3 167 58 59 61
654 3 167 58 59 74
655 2 10 11 12 13
656 1 10 11 12 97
657 1 10 11 12 98
658 1 95 11 12 13
659 14 95 11 12 97
660 14 95 11 12 98
661 1 96 11 12 13
662 14 96 11 12 97
663 14 96 11 12 98
664 1 83 1 2 3
665 1 83 1 2 4
666 1 83 1 2 82
667 1 84 1 2 3
668 1 84 1 2 4
669 1 84 1 2 82
670 1 85 1 2 3
671 1 85 1 2 4
672 1 85 1 2 82
673 1 1 2 3 86
674 1 1 2 3 87
675 1 1 2 3 88
676 1 4 2 3 86
677 1 4 2 3 87
678 1 4 2 3 88
679 1 82 2 3 86
680 1 82 2 3 87
681 1 82 2 3 88
682 2 1 2 4 5
683 1 1 2 4 89
684 1 1 2 4 90
685 2 3 2 4 5
686 1 3 2 4 89
687 1 3 2 4 90
688 2 82 2 4 5
689 1 82 2 4 89
690 1 82 2 4 90
691 3 2 4 5 6
692 2 2 4 5 75
693 3 2 4 5 91
694 3 89 4 5 6
695 1 89 4 5 75
696 3 89 4 5 91
697 3 90 4 5 6
698 1 90 4 5 75
699 3 90 4 5 91
700 4 4 5 6 7
701 5 4 5 6 92
702 4 75 5 6 7
703 5 75 5 6 92
704 6 91 5 6 7
705 5 91 5 6 92
706 2 4 5 75 76
707 1 4 5 75 190
708 1 4 5 75 191
709 3 6 5 75 76
710 3 6 5 75 190
711 3 6 5 75 191
712 3 91 5 75 76
713 3 91 5 75 190
714 3 91 5 75 191
715 7 5 6 7 8
716 7 5 6 7 9
717 8 92 6 7 8
718 7 92 6 7 9
719 2 5 75 76 77
720 2 5 75 76 78
721 2 5 75 76 82
722 1 190 75 76 77
723 1 190 75 76 78
724 1 190 75 76 82
725 1 191 75 76 77
726 1 191 75 76 78
727 1 191 75 76 82
728 1 75 76 77 192
729 1 75 76 77 193
730 1 75 76 77 194
731 1 78 76 77 192
732 1 78 76 77 193
733 1 78 76 77 194
734 1 82 76 77 192
735 1 82 76 77 193
736 1 82 76 77 194
737 3 75 76 78 79
738 3 75 76 78 195
739 3 75 76 78 196
740 3 77 76 78 79
741 3 77 76 78 195
742 3 77 76 78 196
743 3 82 76 78 79
744 3 82 76 78 195
745 3 82 76 78 196
746 2 75 76 82 2
747 1 75 76 82 197
748 1 75 76 82 198
749 2 77 76 82 2
750 1 77 76 82 197
751 1 77 76 82 198
752 2 78 76 82 2
753 1 78 76 82 197
754 1 78 76 82 198
755 2 76 82 2 1
756 2 76 82 2 3
757 2 76 82 2 4
758 1 197 82 2 1
759 1 197 82 2 3
760 1 197 82 2 4
761 1 198 82 2 1
762 1 198 82 2 3
763 1 198 82 2 4
764 9 6 7 9 10
765 10 8 7 9 10
766 11 7 9 10 11
767 12 7 9 10 93
768 12 7 9 10 94
769 3 24 25 26 27
770 13 24 25 26 119
771 13 24 25 26 120
772 3 117 25 26 27
773 3 117 25 26 119
774 3 117 25 26 120
775 3 118 25 26 27
776 3 118 25 26 119
777 3 118 25 26 120
778 3 9 10 11 12
779 13 9 10 11 95
780 13 9 10 11 96
781 3 93 10 11 12
782 3 93 10 11 95
783 3 93 10 11 96
784 3 94 10 11 12
785 3 94 10 11 95
786 3 94 10 11 96
787 2 25 26 27 28
788 1 25 26 27 121
789 1 25 26 27 122
790 1 119 26 27 28
791 14 119 26 27 121
792 14 119 26 27 122
793 1 120 26 27 28
794 14 120 26 27 121
795 14 120 26 27 122
796 22 76 78 79 80
797 22 195 78 79 80
798 22 196 78 79 80
799 3 21 22 23 24
800 3 21 22 23 115
801 3 21 22 23 116
802 13 113 22 23 24
803 3 113 22 23 115
804 3 113 22 23 116
805 13 114 22 23 24
806 3 114 22 23 115
807 3 114 22 23 116
808 23 78 79 80 81
809 2 20 21 22 23
810 1 20 21 22 113
811 1 20 21 22 114
812 1 111 21 22 23
813 14 111 21 22 113
814 14 111 21 22 114
815 1 112 21 22 23
816 14 112 21 22 113
817 14 112 21 22 114
818 15 23 24 25 26
819 16 23 24 25 117
820 16 23 24 25 118
821 15 22 23 24 25
822 16 115 23 24 25
823 16 116 23 24 25
824 3 26 27 28 29
825 3 26 27 28 123
826 3 26 27 28 124
827 13 121 27 28 29
828 3 121 27 28 123
829 3 121 27 28 124
830 13 122 27 28 29
831 3 122 27 28 123
832 3 122 27 28 124
833 2 248 249 250 251
834 1 248 249 250 359
835 1 248 249 250 360
836 1 357 249 250 251
837 14 357 249 250 359
838 14 357 249 250 360
839 1 358 249 250 251
840 14 358 249 250 359
841 14 358 249 250 360
842 15 32 33 34 35
843 16 131 33 34 35
844 16 132 33 34 35
845 3 31 32 33 34
846 3 31 32 33 131
847 3 31 32 33 132
848 13 129 32 33 34
849 3 129 32 33 131
850 3 129 32 33 132
851 13 130 32 33 34
852 3 130 32 33 131
853 3 130 32 33 132
854 3 207 208 209 210
855 13 207 208 209 293
856 13 207 208 209 294
857 3 291 208 209 210
858 3 291 208 209 293
859 3 291 208 209 294
860 3 292 208 209 210
861 3 292 208 209 293
862 3 292 208 209 294
863 2 208 209 210 211
864 1 208 209 210 295
865 1 208 209 210 296
866 1 293 209 210 211
867 14 293 209 210 295
868 14 293 209 210 296
869 1 294 209 210 211
870 14 294 209 210 295
871 14 294 209 210 296
872 3 209 210 211 212
873 3 209 210 211 297
874 3 209 210 211 298
875 13 295 210 211 212
876 3 295 210 211 297
877 3 295 210 211 298
878 13 296 210 211 212
879 3 296 210 211 297
880 3 296 210 211 298
881 15 210 211 212 213
882 16 297 211 212 213
883 16 298 211 212 213
884 15 211 212 213 214
885 16 211 212 213 299
886 16 211 212 213 300
887 3 212 213 214 215
888 13 212 213 214 301
889 13 212 213 214 302
890 3 299 213 214 215
891 3 299 213 214 301
892 3 299 213 214 302
893 3 300 213 214 215
894 3 300 213 214 301
895 3 300 213 214 302
896 11 205 207 208 209
897 12 205 207 208 291
898 12 205 207 208 292
899 9 204 205 207 208
900 10 206 205 207 208
901 2 213 214 215 216
902 1 213 214 215 303
903 1 213 214 215 304
904 1 301 214 215 216
905 14 301 214 215 303
906 14 301 214 215 304
907 1 302 214 215 216
908 14 302 214 215 303
909 14 302 214 215 304
910 3 214 215 216 217
911 3 214 215 216 305
912 3 214 215 216 306
913 13 303 215 216 217
914 3 303 215 216 305
915 3 303 215 216 306
916 13 304 215 216 217
917 3 304 215 216 305
918 3 304 215 216 306
919 15 27 28 29 30
920 16 123 28 29 30
921 16 124 28 29 30
922 3 29 30 31 32
923 13 29 30 31 127
924 13 29 30 31 128
925 3 125 30 31 32
926 3 125 30 31 127
927 3 125 30 31 128
928 3 126 30 31 32
929 3 126 30 31 127
930 3 126 30 31 128
931 15 28 29 30 31
932 16 28 29 30 125
933 16 28 29 30 126
934 15 215 216 217 218
935 16 305 216 217 218
936 16 306 216 217 218
937 23 276 277 278 279
938 22 274 276 277 278
939 22 393 276 277 278
940 22 394 276 277 278
941 2 223 224 225 226
942 1 223 224 225 319
943 1 223 224 225 320
944 1 317 224 225 226
945 14 317 224 225 319
946 14 317 224 225 320
947 1 318 224 225 226
948 14 318 224 225 319
949 14 318 224 225 320
950 1 273 274 275 390
951 1 273 274 275 391
952 1 273 274 275 392
953 1 276 274 275 390
954 1 276 274 275 391
955 1 276 274 275 392
956 1 280 274 275 390
957 1 280 274 275 391
958 1 280 274 275 392
959 3 273 274 276 277
960 3 273 274 276 393
961 3 273 274 276 394
962 3 275 274 276 277
963 3 275 274 276 393
964 3 275 274 276 394
965 3 280 274 276 277
966 3 280 274 276 393
967 3 280 274 276 394
968 2 273 274 280 200
969 1 273 274 280 395
970 1 273 274 280 396
971 2 275 274 280 200
972 1 275 274 280 395
973 1 275 274 280 396
974 2 276 274 280 200
975 1 276 274 280 395
976 1 276 274 280 396
977 7 203 204 205 206
978 7 203 204 205 207
979 8 290 204 205 206
980 7 290 204 205 207
981 4 202 203 204 205
982 5 202 203 204 290
983 4 273 203 204 205
984 5 273 203 204 290
985 6 289 203 204 205
986 5 289 203 204 290
987 2 202 203 273 274
988 1 202 203 273 388
989 1 202 203 273 389
990 3 204 203 273 274
991 3 204 203 273 388
992 3 204 203 273 389
993 3 289 203 273 274
994 3 289 203 273 388
995 3 289 203 273 389
996 15 216 217 218 219
997 16 216 217 218 307
998 16 216 217 218 308
999 3 219 220 221 222
1000 3 219 220 221 313
1001 3 219 220 221 314
1002 13 311 220 221 222
1003 3 311 220 221 313
1004 3 311 220 221 314
1005 13 312 220 221 222
1006 3 312 220 221 313
1007 3 312 220 221 314
1008 15 221 222 223 224
1009 16 221 222 223 315
1010 16 221 222 223 316
1011 2 203 273 274 275
1012 2 203 273 274 276
1013 2 203 273 274 280
1014 1 388 273 274 275
1015 1 388 273 274 276
1016 1 388 273 274 280
1017 1 389 273 274 275
1018 1 389 273 274 276
1019 1 389 273 274 280
1020 1 281 199 200 201
1021 1 281 199 200 202
1022 1 281 199 200 280
1023 1 282 199 200 201
1024 1 282 199 200 202
1025 1 282 199 200 280
1026 1 283 199 200 201
1027 1 283 199 200 202
1028 1 283 199 200 280
1029 1 199 200 201 284
1030 1 199 200 201 285
1031 1 199 200 201 286
1032 1 202 200 201 284
1033 1 202 200 201 285
1034 1 202 200 201 286
1035 1 280 200 201 284
1036 1 280 200 201 285
1037 1 280 200 201 286
1038 2 199 200 202 203
1039 1 199 200 202 287
1040 1 199 200 202 288
1041 2 201 200 202 203
1042 1 201 200 202 287
1043 1 201 200 202 288
1044 2 280 200 202 203
1045 1 280 200 202 287
1046 1 280 200 202 288
1047 3 200 202 203 204
1048 2 200 202 203 273
1049 3 200 202 203 289
1050 3 287 202 203 204
1051 1 287 202 203 273
1052 3 287 202 203 289
1053 3 288 202 203 204
1054 1 288 202 203 273
1055 3 288 202 203 289
1056 2 274 280 200 199
1057 2 274 280 200 201
1058 2 274 280 200 202
1059 1 395 280 200 199
1060 1 395 280 200 201
1061 1 395 280 200 202
1062 1 396 280 200 199
1063 1 396 280 200 201
1064 1 396 280 200 202

Impropers

1 3 255 253 256 363
2 1 261 260 262 372
3 2 262 261 264 263
4 2 253 252 255 254
5 2 64 63 66 65
6 1 63 62 64 174
7 2 55 54 57 56
8 3 57 55 58 165
9 1 6 5 7 92
10 2 7 6 9 8
11 2 205 204 207 206
12 1 204 203 205 290
