26

C      1.034805    0.193227    1.019445
C     -0.403954    0.536268    1.401508
C     -1.417885   -0.108748    0.449044
C     -1.109844    0.268126   -1.008459
C      0.329323   -0.073341   -1.390355
C      1.342848    0.572367   -0.437688
C      2.770420    0.177712   -0.828865
O      3.704570    0.872685   -0.013651
C     -2.845433    0.290663    0.838294
O     -3.797570   -0.388352    0.029399
H      1.716373    0.716335    1.700380
H      1.201110   -0.881469    1.167601
H     -0.527876    1.626843    1.395883
H     -0.591967    0.201444    2.428692
H     -1.333325   -1.201089    0.531849
H     -1.277306    1.342392   -1.158467
H     -1.791265   -0.256886   -1.688112
H      0.454339   -1.163796   -1.384853
H      0.516915    0.261739   -2.417532
H      1.257713    1.664913   -0.518436
H      2.969007    0.441048   -1.873127
H      2.931722   -0.898315   -0.703304
H      4.592703    0.605329   -0.305927
H     -3.002277    1.367051    0.712324
H     -3.051371    0.041206    1.884625
H     -3.671776   -1.342239    0.169732
