41

O      7.237941    0.887261   -0.635796
C      6.243154    0.357380   -0.968174
N      5.243771   -0.166032   -1.290330
C      4.094336    0.118502   -0.414776
C      2.971988    0.713237   -1.270938
C      1.686440    0.906694   -0.468229
C      1.223373   -0.397668    0.199602
C      2.360725   -1.001023    1.044321
C      3.637789   -1.193432    0.230762
C     -0.024103   -0.196956    1.086007
C     -1.276195    0.369214    0.382744
C     -1.743740   -0.512759   -0.784462
C     -3.031422    0.012169   -1.422176
C     -4.162604    0.221225   -0.409680
C     -3.690270    1.072544    0.773908
C     -2.407579    0.540095    1.411761
N     -4.602620   -1.095757    0.089720
C     -5.744747   -1.318801   -0.059698
O     -6.890081   -1.531085   -0.214367
H      4.346074    0.836211    0.381359
H      3.292132    1.676465   -1.686624
H      2.768073    0.059348   -2.129209
H      1.848630    1.678167    0.295086
H      0.913419    1.285157   -1.145679
H      0.983199   -1.122993   -0.588090
H      2.575148   -0.349592    1.901316
H      2.047467   -1.969331    1.452915
H      3.466636   -1.954190   -0.542164
H      4.430367   -1.585026    0.879914
H      0.239036    0.471685    1.916897
H     -0.283574   -1.161689    1.542833
H     -1.039223    1.366138   -0.009913
H     -0.973230   -0.555834   -1.562002
H     -1.898604   -1.541419   -0.435795
H     -3.352713   -0.681752   -2.208357
H     -2.814519    0.969092   -1.914020
H     -4.981889    0.754047   -0.915325
H     -3.512105    2.098063    0.426121
H     -4.476225    1.128748    1.536639
H     -2.089557    1.233000    2.200361
H     -2.614700   -0.419104    1.902999
