120

O     19.386533    0.105201   -3.359837
C     18.165334   -0.619318   -3.412397
C     17.079207    0.232228   -4.056145
C     16.865955    1.598428   -3.393400
C     16.577505    1.536971   -1.897130
O     15.475430    0.662741   -1.661063
C     15.147004    0.589654   -0.274652
C     13.962705   -0.355498   -0.111506
C     13.574896   -0.520395    1.358403
C     12.392160   -1.466724    1.537872
O     11.237402   -0.891488    0.931608
C     10.095193   -1.735885    1.058681
C      8.902097   -1.078274    0.372899
C      8.532673    0.263123    1.016015
C      7.330973    0.914649    0.333221
O      6.174822    0.078305    0.352025
C      5.475323    0.106707    1.595402
C      4.260087   -0.806736    1.471278
C      3.459932   -0.935369    2.764346
C      2.774675    0.359472    3.189591
O      2.015694    0.085863    4.367135
C      1.380296    1.238973    4.915299
C      0.173629    1.707730    4.102511
C     -0.841013    0.584349    3.865023
C     -2.088250    1.078563    3.137645
O     -1.716263    1.588424    1.858565
C     -2.827548    2.051574    1.092571
C     -3.475874    0.899955    0.328946
C     -4.609349    1.391154   -0.564701
C     -5.247159    0.248016   -1.344465
O     -6.305309    0.787295   -2.134133
C     -6.956132   -0.216133   -2.907393
C     -8.090379    0.419531   -3.706525
C     -9.117001    1.180044   -2.861985
C     -9.819109    0.306870   -1.824332
O    -10.827683    1.053056   -1.142180
C    -12.097207    1.051234   -1.792487
C    -12.919516   -0.181071   -1.416995
C    -13.153099   -0.279583    0.094717
C    -13.970247   -1.514404    0.471675
O    -15.226100   -1.566738   -0.202721
C    -16.215164   -0.718303    0.374011
C    -17.528861   -0.898536   -0.383653
C    -18.079916   -2.323711   -0.252665
C    -19.451539   -2.483517   -0.900360
O    -19.372900   -2.386818   -2.315000
H     20.058380   -0.500101   -3.002119
H     18.325538   -1.526160   -4.004667
H     17.889627   -0.919458   -2.396960
H     16.138881   -0.331147   -4.064287
H     17.348178    0.414271   -5.104214
H     16.017029    2.078374   -3.896373
H     17.738684    2.239171   -3.564966
H     17.456300    1.181690   -1.347751
H     16.330653    2.542096   -1.535822
H     16.011768    0.214260    0.284514
H     14.888166    1.588622    0.094684
H     14.212867   -1.330662   -0.547848
H     13.116145    0.026095   -0.695460
H     13.317741    0.462746    1.771046
H     14.431293   -0.905782    1.923647
H     12.608877   -2.439327    1.081242
H     12.202800   -1.612898    2.607378
H     10.301433   -2.700887    0.581821
H      9.877344   -1.905863    2.119397
H      9.142401   -0.907974   -0.683627
H      8.048957   -1.764709    0.413751
H      9.381993    0.953800    0.960091
H      8.319744    0.101323    2.078333
H      7.104676    1.886387    0.787407
H      7.571940    1.101688   -0.719046
H      5.165622    1.135077    1.807771
H      6.125682   -0.247233    2.401434
H      3.614014   -0.451057    0.658943
H      4.598764   -1.803647    1.161288
H      4.106037   -1.293057    3.575818
H      2.695502   -1.712210    2.634674
H      2.114616    0.708391    2.389289
H      3.514956    1.134780    3.411633
H      2.108718    2.050010    5.030980
H      1.047040    0.965386    5.922566
H     -0.307549    2.537644    4.633546
H      0.511065    2.102598    3.137934
H     -1.136492    0.142734    4.823649
H     -0.370851   -0.204567    3.265931
H     -2.788316    0.245123    3.020576
H     -2.576044    1.868324    3.720467
H     -3.549603    2.573416    1.731623
H     -2.434838    2.783957    0.378793
H     -3.856843    0.149803    1.031114
H     -2.712126    0.389495   -0.270862
H     -4.239280    2.146981   -1.268745
H     -5.376801    1.892845    0.038075
H     -5.651504   -0.502666   -0.655782
H     -4.506272   -0.226713   -1.997887
H     -6.234833   -0.667020   -3.598769
H     -7.340648   -1.004189   -2.250669
H     -8.596923   -0.355944   -4.292803
H     -7.658445    1.131886   -4.420523
H     -9.858177    1.626039   -3.535540
H     -8.642460    2.029881   -2.355795
H    -10.236925   -0.598140   -2.278281
H     -9.101041   -0.009992   -1.061407
H    -11.983266    1.121540   -2.879665
H    -12.626651    1.952708   -1.465161
H    -12.407154   -1.089054   -1.754126
H    -13.879304   -0.133989   -1.944039
H    -13.665647    0.627004    0.434868
H    -12.193600   -0.323100    0.622809
H    -13.416243   -2.413823    0.180950
H    -14.118598   -1.567444    1.556524
H    -15.899931    0.326969    0.295201
H    -16.351349   -0.967804    1.432479
H    -17.361067   -0.670394   -1.442504
H    -18.263477   -0.181645    0.000657
H    -18.160592   -2.582831    0.809517
H    -17.378375   -3.027683   -0.715568
H    -20.159368   -1.733148   -0.533551
H    -19.857720   -3.471684   -0.662674
H    -19.049024   -1.498862   -2.538640
