34

C     -1.687980   -2.447124   -0.995847
C     -1.072429   -1.244205   -0.242382
C     -1.335136   -1.486264    1.255787
C     -1.780142    0.042407   -0.716244
C     -1.069241    1.330726   -0.279838
C      0.376917    1.333775   -0.789627
C      1.207834    0.129914   -0.289155
C      2.532329    0.085366   -1.093421
C      1.564965    0.251616    1.218626
N      2.366224    1.464550    1.460780
C      2.804437    1.534161    2.547121
O      3.235378    1.589720    3.638714
C      0.442700   -1.194287   -0.578951
N     -1.780954    2.466253   -0.897517
C     -2.056991    3.331759   -0.154851
O     -2.329345    4.189450    0.600693
H     -2.764850   -2.525736   -0.807352
H     -1.551538   -2.353025   -2.079219
H     -1.222448   -3.388472   -0.682228
H     -0.722118   -2.310271    1.637173
H     -2.384892   -1.752668    1.429274
H     -1.144099   -0.607867    1.872550
H     -1.848630    0.035602   -1.813687
H     -2.817846    0.056955   -0.356661
H     -1.079232    1.402228    0.815860
H      0.358930    1.327304   -1.889275
H      0.861807    2.279318   -0.515442
H      3.168755   -0.741160   -0.757574
H      2.343611   -0.056022   -2.163961
H      3.102768    1.014788   -0.990115
H      2.121339   -0.643752    1.531828
H      0.665533    0.308103    1.833933
H      0.536225   -1.390084   -1.657607
H      0.958119   -2.033061   -0.091388
