19

C      1.778950    0.219432   -0.157237
C      0.277028   -0.080792   -0.020768
C      0.086938   -1.251158    0.962437
C     -0.431791    1.177698    0.524694
O     -1.842269    0.981066    0.590788
C     -0.287098   -0.463723   -1.407443
O     -1.652119   -0.860489   -1.352161
H      1.955546    1.043755   -0.857315
H      2.325727   -0.655041   -0.527574
H      2.215949    0.501375    0.807329
H      0.515458   -1.013561    1.942785
H     -0.970264   -1.491944    1.116039
H      0.583146   -2.156447    0.594687
H     -0.245602    2.040533   -0.124446
H     -0.071998    1.422180    1.530544
H     -2.216309    1.768813    1.026168
H     -0.211054    0.379224   -2.103432
H      0.276617   -1.297732   -1.839677
H     -2.086853   -0.263188   -0.705417
