250

O     -2.035715    7.650930    1.157467
C     -3.096794    6.807385    0.729191
C     -3.776158    6.210872    1.954400
C     -4.972024    5.339389    1.568592
C     -5.670657    4.753856    2.792208
O     -4.812270    3.798683    3.411335
C     -5.368751    3.285359    4.618994
C     -4.484569    2.159375    5.146741
C     -3.058596    2.622850    5.440593
C     -2.190728    1.474101    5.939007
O     -0.856234    1.957036    6.087718
C     -0.026466    1.032844    6.785012
C      1.383904    1.608437    6.864113
C      2.101253    1.668469    5.512635
C      2.560806    0.297453    5.026227
O      3.358803    0.474986    3.854208
C      4.197964   -0.656786    3.612817
C      5.015079   -0.392824    2.354590
C      6.242296   -1.296341    2.218119
C      5.955263   -2.793493    2.256033
O      5.031102   -3.126623    1.226067
C      4.908216   -4.540929    1.066041
C      3.914681   -4.824832   -0.052598
C      2.475638   -4.534418    0.372825
C      1.532746   -4.613628   -0.818177
O      0.186533   -4.524098   -0.361232
C     -0.707871   -4.322438   -1.456877
C     -2.134057   -4.312850   -0.926774
C     -3.149866   -4.243827   -2.066209
C     -4.586660   -4.341790   -1.566367
O     -4.783358   -5.612107   -0.948243
C     -6.138943   -5.826673   -0.574274
C     -6.293406   -7.183787    0.109369
C     -5.689456   -7.256415    1.520077
C     -4.164159   -7.271438    1.570345
O     -3.680883   -8.385019    0.823294
C     -2.258988   -8.374705    0.703404
C     -1.873508   -9.458155   -0.296630
C     -0.373427   -9.573945   -0.555215
C      0.259339   -8.278885   -1.062618
O      1.548767   -8.549680   -1.621963
C      1.498589   -8.827119   -3.025273
C      1.594663   -7.532639   -3.830495
C      3.017747   -6.961047   -3.821772
C      3.074384   -5.513577   -4.304736
O      2.340496   -5.374367   -5.516176
C      2.440396   -4.080786   -6.111689
C      1.853815   -2.968139   -5.241181
C      1.698917   -1.668747   -6.032779
C      1.366613   -0.474791   -5.143449
O      0.158731   -0.718822   -4.424949
C     -0.216424    0.395628   -3.613387
C     -0.193159    0.031290   -2.131826
C      1.186475   -0.437539   -1.662307
C      1.302744   -0.474489   -0.142746
O      0.280830   -1.303411    0.399833
C      0.352262   -1.359070    1.822032
C     -0.829672   -2.171579    2.332311
C     -0.858652   -2.222614    3.860296
C     -2.078678   -2.973438    4.384491
O     -3.251896   -2.282290    3.968561
C     -4.450114   -2.926302    4.393454
C     -5.617667   -2.333382    3.609030
C     -5.537283   -2.715231    2.124700
C     -6.594823   -2.007008    1.278761
O     -6.430233   -0.591545    1.248509
C     -5.294854   -0.148063    0.498408
C     -4.346905    0.575647    1.443126
C     -3.101539    1.107311    0.743839
C     -2.179193    1.777685    1.753718
O     -1.046478    2.323231    1.080649
C     -0.107693    2.852196    2.018133
C      0.856184    3.781207    1.291383
C      0.129826    5.010961    0.754518
C      1.078538    6.020251    0.125534
O      0.294423    7.114855   -0.363129
C      1.122207    8.152803   -0.891033
C      0.225036    9.161912   -1.597958
C      1.035550   10.300368   -2.218695
C      0.184717   11.217608   -3.102131
O     -0.580974   10.493945   -4.063058
C      0.183637    9.998180   -5.159317
C     -0.628182    8.894099   -5.826494
C      0.203186    8.120260   -6.842320
C     -0.557372    6.914608   -7.385249
O      0.337317    6.102937   -8.146622
C      0.601194    4.825560   -7.562638
C      1.511647    4.935457   -6.340410
C      1.862410    3.565119   -5.771670
C      2.803014    3.676115   -4.575491
O      3.073930    2.357512   -4.102761
C      4.150577    2.297657   -3.166845
C      3.765670    2.847507   -1.794464
C      4.891901    2.628113   -0.781545
C      4.523707    3.099090    0.618944
O      4.238119    4.491240    0.607560
H     -1.310742    7.548169    0.504194
H     -3.795514    7.410648    0.141643
H     -2.695329    6.016321    0.087962
H     -3.042423    5.627354    2.524412
H     -4.098306    7.020512    2.621119
H     -4.627422    4.524873    0.919831
H     -5.691408    5.939803    0.999875
H     -6.591728    4.250239    2.477648
H     -5.927716    5.547479    3.503296
H     -5.440454    4.091235    5.358189
H     -6.373821    2.893334    4.425140
H     -4.935164    1.743594    6.055314
H     -4.446613    1.355578    4.402643
H     -2.597465    3.062201    4.549405
H     -3.068482    3.422133    6.192177
H     -2.191048    0.648480    5.219468
H     -2.570667    1.109881    6.900657
H     -0.417192    0.902567    7.800746
H     -0.033851    0.060960    6.281577
H      1.980403    1.021519    7.571993
H      1.323696    2.630601    7.258226
H      2.983828    2.313588    5.612233
H      1.473545    2.146716    4.752228
H      1.709118   -0.341499    4.773195
H      3.147802   -0.191128    5.813066
H      3.580282   -1.553797    3.493014
H      4.866178   -0.791239    4.471284
H      4.367296   -0.489987    1.475293
H      5.353765    0.650393    2.353963
H      6.725397   -1.054302    1.263154
H      6.961121   -1.053508    3.009746
H      5.541917   -3.090026    3.226128
H      6.895911   -3.335888    2.103099
H      5.885529   -4.953390    0.790347
H      4.581838   -4.999202    2.006577
H      4.167795   -4.211724   -0.926291
H      3.993254   -5.877290   -0.349207
H      2.160538   -5.243698    1.147990
H      2.396830   -3.539305    0.823963
H      1.752741   -3.795745   -1.513511
H      1.660326   -5.566285   -1.340485
H     -0.481224   -3.369714   -1.948487
H     -0.579531   -5.134932   -2.181073
H     -2.292718   -5.209967   -0.321098
H     -2.268863   -3.463702   -0.245821
H     -2.960060   -5.069988   -2.762486
H     -3.019962   -3.306380   -2.619151
H     -5.272846   -4.235202   -2.414188
H     -4.791167   -3.546900   -0.842606
H     -6.478130   -5.025371    0.090229
H     -6.759665   -5.812236   -1.477720
H     -7.366001   -7.396708    0.195892
H     -5.859002   -7.968304   -0.520883
H     -6.051801   -8.185083    1.979388
H     -6.067997   -6.428560    2.130468
H     -3.754660   -6.334321    1.184095
H     -3.836332   -7.377342    2.610960
H     -1.810859   -8.572896    1.683066
H     -1.926867   -7.394958    0.348682
H     -2.394614   -9.271668   -1.244732
H     -2.253466  -10.424885    0.057402
H     -0.205054  -10.382384   -1.276757
H      0.142590   -9.888224    0.360559
H     -0.385001   -7.769807   -1.788189
H      0.413418   -7.595264   -0.221359
H      0.581701   -9.371874   -3.278376
H      2.342530   -9.483351   -3.263318
H      1.299503   -7.736574   -4.866444
H      0.900187   -6.787090   -3.429395
H      3.456567   -7.014190   -2.818923
H      3.638723   -7.582416   -4.478924
H      4.117885   -5.216953   -4.459160
H      2.637330   -4.869237   -3.537613
H      3.488683   -3.874084   -6.357436
H      1.891980   -4.135127   -7.058452
H      0.886609   -3.287018   -4.834190
H      2.509112   -2.794181   -4.379571
H      0.899429   -1.803711   -6.771428
H      2.622197   -1.450959   -6.582323
H      1.242816    0.413703   -5.772951
H      2.186493   -0.298041   -4.439318
H     -1.237823    0.671875   -3.896357
H      0.418112    1.270249   -3.797619
H     -0.510355    0.906390   -1.552861
H     -0.921136   -0.767634   -1.946023
H      1.372000   -1.440250   -2.063854
H      1.966496    0.221498   -2.055972
H      1.210421    0.539604    0.261714
H      2.284258   -0.873434    0.136364
H      0.313851   -0.345075    2.232817
H      1.295875   -1.825334    2.125243
H     -0.780478   -3.187767    1.923828
H     -1.756288   -1.735297    1.940023
H      0.053121   -2.702437    4.233725
H     -0.876625   -1.196889    4.245813
H     -2.049026   -3.010999    5.479047
H     -2.089079   -3.997090    3.992828
H     -4.391228   -4.007761    4.223055
H     -4.585062   -2.743567    5.464828
H     -6.562243   -2.699380    4.027135
H     -5.607186   -1.242794    3.714774
H     -4.538744   -2.487893    1.736794
H     -5.673671   -3.798588    2.031625
H     -7.588089   -2.207317    1.695197
H     -6.598863   -2.393137    0.253495
H     -5.661159    0.546887   -0.264712
H     -4.791552   -0.972799   -0.019188
H     -4.051934   -0.099234    2.253822
H     -4.888321    1.399030    1.924073
H     -2.564101    0.294228    0.241141
H     -3.376336    1.823457   -0.039900
H     -1.849641    1.051584    2.505954
H     -2.711804    2.592388    2.252901
H     -0.621123    3.399600    2.817937
H      0.445486    2.020506    2.465569
H      1.647041    4.088762    1.984217
H      1.321550    3.249088    0.454390
H     -0.419462    5.498072    1.568790
H     -0.623694    4.715206    0.014564
H      1.623662    5.563908   -0.708372
H      1.795134    6.385023    0.870167
H      1.840261    7.728105   -1.602444
H      1.669338    8.630181   -0.070588
H     -0.354236    8.630473   -2.362525
H     -0.511181    9.564721   -0.891645
H      1.852531    9.873981   -2.811074
H      1.504610   10.897505   -1.427761
H     -0.528509   11.759308   -2.471420
H      0.808323   11.965906   -3.604709
H      1.140574    9.592946   -4.818001
H      0.380595   10.816571   -5.860016
H     -1.518253    9.323638   -6.302011
H     -1.000521    8.210157   -5.052810
H      0.497867    8.772920   -7.673269
H      1.140565    7.787908   -6.381514
H     -1.350552    7.254459   -8.059877
H     -1.034446    6.343357   -6.580106
H      1.098897    4.226217   -8.332857
H     -0.342192    4.321277   -7.321837
H      2.423789    5.477604   -6.618594
H      1.026367    5.536069   -5.562635
H      2.330663    2.940564   -6.542671
H      0.948999    3.037901   -5.471098
H      3.735014    4.166746   -4.878635
H      2.330469    4.260720   -3.779441
H      4.415257    1.238772   -3.070688
H      5.029774    2.812185   -3.572223
H      3.536770    3.916026   -1.873033
H      2.843719    2.364919   -1.451157
H      5.779834    3.174625   -1.122288
H      5.153858    1.564399   -0.740003
H      5.362057    2.927218    1.301216
H      3.650366    2.558633    0.996225
H      4.072851    4.744811    1.532849
