185
 energy: -27.457488891026 gnorm: 0.000780705642 xtb: 6.7.1 (edcfbbe)
O           -3.23758299871411        5.28010766068940       -0.53826654347961
C           -2.89338126747039        5.45904611462456        0.82049676967745
C           -1.63142098749331        6.29131058447950        1.01063882239442
C           -1.18360438389368        6.39859259585970        2.46409499891083
C           -0.70496565890387        5.06223393648684        3.01276280363287
O            0.30763107320300        4.49530057817591        2.19085243972464
C            0.82980693046431        3.28090371543714        2.72181434490657
C            1.94756305668908        2.72435973970648        1.85502461844603
C            2.57175645118210        1.44962389903072        2.40673911239823
C            3.76389549483111        1.02395718555381        1.56548035617369
O            4.75793906228071        2.04383413975223        1.52995400497745
C            5.73882722156020        1.82191111555819        0.52568869349530
C            6.77067997245150        2.93967495087697        0.48283703988150
C            6.13065399378858        4.31727703845558        0.37491385146606
C            5.22358057640959        4.43738479934677       -0.84044474614022
O            5.88432998123169        4.04268455880265       -2.03716727759803
C            4.98030335270357        3.72077878127246       -3.08677637736604
C            4.27904460882580        4.93612242382584       -3.67661721449073
C            3.20762628916161        4.57328410027158       -4.70113242329251
C            2.00211940714268        3.93103063680896       -4.03194814599421
O            1.45766037904259        4.78661951983440       -3.03322220224903
C            0.88738959798983        4.09614817633658       -1.93012651846528
C           -0.18079055583744        3.07007123453326       -2.31675400676883
C           -1.21495010769884        2.87371912297176       -1.21654081041131
C           -2.16215251200345        1.71840541873985       -1.50774878420751
O           -1.51671161601940        0.44988868731388       -1.42296462936377
C           -1.78966296567037       -0.24919203987360       -0.21097744703220
C           -1.32530869767624        0.47146523339476        1.04567519333408
C           -1.70563680122206       -0.24398741305381        2.33751543885269
C           -0.99888964212266       -1.57814929288588        2.50022457407268
O            0.41752538767289       -1.44497045196588        2.45709556132266
C            1.07025728299439       -2.65716700630816        2.82361815679282
C            2.55144247943803       -2.65780090277861        2.49591123157708
C            3.23666152790887       -3.97965386555415        2.83844605664152
C            2.57267114014493       -5.17381096658523        2.15645349259000
O            1.37831957252482       -5.59825621521961        2.81660384093758
C            1.63369625368622       -6.63843838176998        3.75510624157987
C            0.45086644419087       -6.96211960336935        4.65999618823914
C            0.04417662776396       -5.78020549504639        5.53981636305509
C           -0.89152674831453       -4.82701982788611        4.81372416261327
O           -2.19428746801050       -5.37658910550437        4.66625152084355
C           -3.06375270111883       -4.51436429211920        3.93904890739947
C           -4.47199191679840       -5.07870365870271        3.84161865672584
C           -5.40233358700933       -4.24655442016097        2.96413601229015
C           -4.85096213676986       -4.06886810301951        1.55402366149901
O           -4.30284851641486       -5.26528027507912        1.02458281267528
C           -5.27808545157707       -6.23540013314157        0.67802157858791
C           -4.64842334448944       -7.49385384212913        0.09631829397609
C           -3.75496463372007       -8.22976781629856        1.08854235557980
C           -2.48554002928607       -7.45809676012999        1.41440113728988
O           -1.74219450676197       -7.14949614777344        0.24279041397842
C           -0.45165407394994       -6.61758803459564        0.52749012702352
C            0.11032091699462       -5.85975058002868       -0.66846970744841
C           -0.54088374369679       -4.49159769864472       -0.85817908065483
C           -2.05376239358600       -4.55484547015145       -1.00659772797691
O           -2.65206722932188       -3.29542225778990       -1.28679570933350
C           -2.34276227729813       -2.82132514755575       -2.59322699834488
C           -3.30774451748859       -1.74494211439069       -3.07049787139124
C           -3.08258863924670       -1.35338044095518       -4.52973753804850
C           -1.72576230365586       -0.71107429072273       -4.78423482396675
O           -1.49016815560424       -0.51886611563331       -6.17366766647082
C           -0.21202864586376        0.03282120798828       -6.45186841397184
C           -0.15122368697059        1.53170330109870       -6.20552546895029
C           -1.24096006041180        2.26562441345755       -6.96920194014445
C           -1.13137199642258        3.77602186939048       -6.83417317193450
O           -1.25282262718813        4.21496194034353       -5.48694298995382
C           -1.16589998445173        5.63446618077639       -5.38551495756308
C           -1.36514583037710        6.13590040181674       -3.96409585286274
C           -1.28144621732755        7.65204175448494       -3.85044245491172
C           -1.53180032190394        8.12798761004662       -2.42651628879136
O           -2.82234393489287        7.79687006026050       -1.95837715357183
H           -3.13597572383079        6.13824118363430       -1.02172009724334
H           -2.77158494288118        4.45886212428398        1.25119407489704
H           -3.74536825787427        5.91653321043532        1.33881012632646
H           -0.82292572740038        5.84803516200495        0.41978976797793
H           -1.79419053015780        7.28833090250919        0.58337071796831
H           -1.99764109273214        6.79964619631925        3.08008573330393
H           -0.36270954761426        7.12235139207721        2.54217802161230
H           -0.30280526698886        5.17171281543032        4.02688484393726
H           -1.52816817975895        4.34246384683926        3.07107891142075
H            0.00893558245598        2.56179446818862        2.81113510700637
H            1.19476354077925        3.48136072983425        3.73515261044782
H            1.57188453309667        2.54917819767465        0.84132718803047
H            2.72416430299990        3.48951735001186        1.74034611125396
H            1.82266474392321        0.65005459173929        2.46196759822667
H            2.90317593183951        1.62335660231397        3.43672893466254
H            3.44613995207033        0.81851886149698        0.53719951364335
H            4.23203942240733        0.11166956878771        1.95241525280737
H            5.21920977588283        1.74421743846149       -0.43556845611655
H            6.20793937243948        0.84946741058324        0.71632216505148
H            7.39348422994057        2.89044326785297        1.38471345691356
H            7.45103222876328        2.78471254504816       -0.36394010150559
H            6.91161572245065        5.08589349498716        0.31985803293704
H            5.55982988129498        4.53024519771054        1.28753846575083
H            4.33718274163291        3.80596464279118       -0.71370425534602
H            4.86604206766640        5.46528636482890       -0.96998004896034
H            5.55797567726560        3.20084625773861       -3.85936299120897
H            4.26199581517367        2.99021701175459       -2.70124922585437
H            3.81067701139154        5.51327770256179       -2.87237482465237
H            5.03168135552927        5.60289871375747       -4.11477886709295
H            2.87457449707765        5.47665461559197       -5.22663035630129
H            3.62625329812806        3.91187434676036       -5.46917275782849
H            1.20449468441298        3.71864031400553       -4.75282209427989
H            2.27785889878784        2.97869443207783       -3.56766181338017
H            1.69777487126548        3.63906593569849       -1.35131243950569
H            0.45476255753107        4.86889594298080       -1.28516379636109
H            0.28435361926606        2.10937732355183       -2.56695232625391
H           -0.68433032731790        3.39214024140049       -3.23555513425440
H           -1.77922785364280        3.80323972305514       -1.08016164723062
H           -0.69823313808694        2.70200593490951       -0.26772117691350
H           -2.56449224887664        1.81029768424006       -2.52322690881172
H           -3.02781310938246        1.72027076096149       -0.83456998190344
H           -1.30211239908827       -1.22628725404249       -0.29889934389024
H           -2.86621910986665       -0.44769798645600       -0.16900982448707
H           -0.23829355162357        0.59846508416677        1.00007694038868
H           -1.74575873063755        1.48303204001665        1.05837241942239
H           -1.45460377436950        0.38960242177673        3.19726983550836
H           -2.79315595980158       -0.38376435330317        2.37712020924860
H           -1.29251543687631       -2.27484908396595        1.70758439750199
H           -1.26592808226849       -2.04704950258701        3.45428697730697
H            0.91539366217601       -2.81275149676612        3.89660196741406
H            0.57170668880091       -3.47837058221072        2.29778440159613
H            3.03564829754199       -1.82373394121997        3.01748425923542
H            2.67240376599267       -2.44190385471284        1.42795813186144
H            4.29840667168418       -3.92763672309712        2.56333864770580
H            3.21789081508752       -4.13573428790525        3.92257751112162
H            3.25097697498884       -6.03323878945526        2.08972415083208
H            2.30783809998192       -4.91438843282827        1.12649560641619
H            2.49604284586117       -6.33958474784348        4.36111918450868
H            1.93893030338894       -7.52270838911771        3.18268539503568
H            0.69720946571752       -7.83197391769688        5.28378439281081
H           -0.40718947891180       -7.26615103695922        4.05032558580500
H            0.94359668161150       -5.25589419710940        5.88585132548032
H           -0.46599576131804       -6.13188314557788        6.44534560298145
H           -0.98963405393069       -3.87477940904429        5.34828399588638
H           -0.50840181405091       -4.61454050992765        3.81165262577120
H           -2.63042122519835       -4.37574248650633        2.94284397332872
H           -3.07364672670512       -3.53416223970156        4.42781866804984
H           -4.88537183831615       -5.19291471378586        4.85102279973625
H           -4.40607474047948       -6.09689629123195        3.44390364759152
H           -6.38882618453899       -4.72412988170410        2.91744660971406
H           -5.57564970514818       -3.26613753175516        3.42496937667650
H           -4.03609059054018       -3.33536567929467        1.54713599703159
H           -5.60671967848432       -3.68948975345928        0.85629242304527
H           -5.96617456772217       -5.77140114237153       -0.03851043473763
H           -5.85874748561626       -6.47887239077292        1.57334083753308
H           -5.43398815708433       -8.16458121017590       -0.27621232248983
H           -4.04815081824645       -7.21562360292962       -0.77735359587684
H           -3.46906861551530       -9.20428934963542        0.67315939432764
H           -4.31649969022041       -8.44737083245952        2.00522753454884
H           -1.83799007264107       -8.02158162830628        2.09624151661736
H           -2.72425840573539       -6.50694343656485        1.90030355927327
H           -0.52323954061495       -5.95833302317405        1.40015509704837
H            0.18928306497737       -7.46086529935425        0.81136594707902
H           -0.04899797047440       -6.46861895310019       -1.56574453151768
H            1.19784450717620       -5.74942307050070       -0.57645087786491
H           -0.29637488914925       -3.84052150979176       -0.01161020767965
H           -0.10819387372314       -3.99600936913551       -1.73446703007323
H           -2.34505616212208       -5.25867846413844       -1.79381798384876
H           -2.51681168140843       -4.92576146163561       -0.08514805613452
H           -2.36137784229237       -3.67251047573022       -3.28289929835805
H           -1.31627397711023       -2.44197756584876       -2.57662817909955
H           -4.33300271939542       -2.10561013684311       -2.92392201900921
H           -3.21509073592745       -0.86313543235748       -2.42894914839648
H           -3.17321359004486       -2.24123962285059       -5.16573796195339
H           -3.86880101839412       -0.67140215780201       -4.87536336034151
H           -1.64969553220165        0.25428941240245       -4.27358504064509
H           -0.91927645980430       -1.34263151866904       -4.39832263070344
H            0.54150173799293       -0.51176471624479       -5.87098972561918
H           -0.00867157168030       -0.18433347075602       -7.50685458858205
H           -0.25258193265247        1.74430136661023       -5.13618894180722
H            0.83282418243753        1.92363939332656       -6.49122616325100
H           -1.20705512017609        1.97530553546008       -8.02661556560241
H           -2.22010249238834        1.93435548730235       -6.60458792181683
H           -0.16303962949386        4.12326206715336       -7.21157040680606
H           -1.90736055826240        4.27974436949380       -7.42272205497578
H           -1.91939567162949        6.07014015846946       -6.05096630279905
H           -0.18535958582018        5.94137595428003       -5.76623485808001
H           -2.33021749005709        5.78260422418203       -3.58400709011757
H           -0.61360444668221        5.67903126908731       -3.31360363528242
H           -2.01432483426797        8.11143862989589       -4.52327492763728
H           -0.30053483215993        7.99442136992881       -4.20285433496064
H           -0.81226911110744        7.66421317966193       -1.74158114729758
H           -1.39304129415526        9.21314101261506       -2.33089181195802
H           -3.50037112350079        8.18834005664632       -2.55495284752130
