19

C     -2.146917   -1.470664    0.177035
C     -0.837502   -0.744812    0.028327
C     -0.631091    0.515805    0.624553
C      0.619979    1.141347    0.489023
C      1.651249    0.553153   -0.253402
C      1.411711   -0.668383   -0.890392
C      0.183940   -1.316758   -0.744333
N      2.878286    1.217345   -0.413829
C      3.670196    0.873687    0.383117
O      4.466114    0.531443    1.178236
N     -1.628846    1.125418    1.408416
C     -2.275413    1.882403    0.784362
O     -2.925691    2.640379    0.163534
H     -2.451247   -1.505542    1.228167
H     -2.070624   -2.506454   -0.170678
H     -2.923501   -0.971555   -0.410861
H      0.791596    2.102818    0.968697
H      2.186727   -1.124613   -1.502667
H      0.031035   -2.275017   -1.237632
