16

O      2.183029    1.350570    0.484654
C      1.927060    0.153590   -0.235985
C      0.495820    0.164267   -0.757176
C     -0.528927    0.166320    0.377290
C     -1.954497    0.179196   -0.157252
O     -2.875557    0.146441    0.924976
H      3.104151    1.305331    0.794106
H      2.630635    0.098061   -1.072575
H      2.098226   -0.701526    0.425689
H      0.338759   -0.713200   -1.394917
H      0.342752    1.057415   -1.375119
H     -0.388308   -0.714400    1.016246
H     -0.381323    1.036053    1.029120
H     -2.143538   -0.696230   -0.786231
H     -2.149424    1.077603   -0.751688
H     -2.698858    0.926484    1.478862
