Generated by RadonPy

198 atoms
12 atom types
199 bonds
14 bond types
380 angles
24 angle types
532 dihedrals
23 dihedral types
6 impropers
3 improper types

-1.6428290676767677e+01 1.6428290676767677e+01 xlo xhi
-1.6428290676767677e+01 1.6428290676767677e+01 ylo yhi
-1.6428290676767677e+01 1.6428290676767677e+01 zlo zhi

Masses

    1	12.011000	# c3,0
    2	14.007000	# ns,0
    3	12.011000	# c,0
    4	15.999000	# o,0
    5	15.999000	# os,0
    6	15.999000	# oh,0
    7	14.007000	# n2,0
    8	12.011000	# cg,0
    9	1.008000	# hc,0
   10	1.008000	# h1,0
   11	1.008000	# hn,0
   12	1.008000	# ho,0

Pair Coeffs

    1	0.107800	3.397710	# c3,0
    2	0.117400	3.269955	# ns,0
    3	0.098800	3.315212	# c,0
    4	0.146300	3.048121	# o,0
    5	0.072600	3.156098	# os,0
    6	0.093000	3.242871	# oh,0
    7	0.094100	3.384168	# n2,0
    8	0.159600	3.478959	# cg,0
    9	0.020800	2.600177	# hc,0
   10	0.020800	2.421997	# h1,0
   11	0.010000	1.106496	# hn,0
   12	0.004700	0.537925	# ho,0

Bond Coeffs

    1	232.520000	1.538000	# c3,c3
    2	263.770000	1.462000	# c3,n
    3	356.210000	1.379000	# c,n
    4	652.570000	1.218000	# c,o
    5	372.940000	1.358000	# c,os
    6	284.760000	1.432000	# c3,os
    7	293.400000	1.423000	# c3,oh
    8	259.910000	1.466000	# c3,n2
    9	736.750000	1.197000	# c1,n2
   10	794.980000	1.172000	# c1,o
   11	375.920000	1.097000	# c3,hc
   12	375.920000	1.097000	# c3,h1
   13	527.310000	1.013000	# hn,n
   14	563.510000	0.973000	# ho,oh

Angle Coeffs

    1	46.816000	109.800000	# c3,c3,hc
    2	38.960000	107.580000	# hc,c3,hc
    3	64.888000	111.510000	# c3,c3,c3
    4	83.161000	111.610000	# c3,c3,n
    5	46.868000	109.560000	# c3,c3,h1
    6	61.544000	108.880000	# h1,c3,n
    7	65.252000	120.690000	# c,n,c3
    8	46.147000	117.680000	# c3,n,hn
    9	48.691000	117.550000	# c,n,hn
   10	113.811000	123.050000	# n,c,o
   11	115.486000	109.220000	# n,c,os
   12	114.822000	123.250000	# o,c,os
   13	66.906000	115.980000	# c,os,c3
   14	85.306000	107.970000	# c3,c3,os
   15	62.377000	109.780000	# h1,c3,os
   16	38.802000	108.460000	# h1,c3,h1
   17	66.293000	112.480000	# c3,os,c3
   18	84.642000	110.190000	# c3,c3,oh
   19	62.540000	110.260000	# h1,c3,oh
   20	49.027000	107.260000	# c3,oh,ho
   21	84.123000	108.800000	# c3,c3,n2
   22	61.133000	109.810000	# h1,c3,n2
   23	60.897000	151.880000	# c1,n2,c3
   24	106.076000	172.730000	# n2,c1,o

Dihedral Coeffs

    1	2	0.080000	3	0.000000	0.080000	3	0.000000	# hc,c3,c3,c3
    2	3	0.130000	3	0.000000	0.290000	2	180.000000	0.110000	1	0.000000	# c3,c3,c3,c3
    3	1	0.155556	3	0.000000	# X,c3,c3,X
    4	6	0.100000	4	180.000000	0.170000	3	0.000000	1.020000	1	180.000000	0.650000	4	180.000000	0.030000	3	180.000000	2.260000	1	0.000000	# c,n,c3,c3
    5	1	0.000000	2	0.000000	# X,c3,n,X
    6	1	0.000000	2	180.000000	# h1,c3,n,c
    7	1	2.500000	2	180.000000	# X,c,n,X
    8	2	2.500000	2	180.000000	2.000000	1	0.000000	# hn,n,c,o
    9	1	2.700000	2	180.000000	# X,c,os,X
   10	2	2.700000	2	180.000000	1.400000	1	180.000000	# o,c,os,c3
   11	2	0.383000	3	0.000000	0.800000	1	180.000000	# c3,c3,os,c
   12	1	0.383333	3	0.000000	# X,c3,os,X
   13	2	0.000000	3	0.000000	0.250000	1	0.000000	# hc,c3,c3,os
   14	1	0.120000	3	0.000000	# hc,c3,c3,hc
   15	5	0.240000	3	0.000000	0.160000	2	0.000000	0.910000	3	0.000000	1.000000	2	0.000000	0.000000	1	0.000000	# c3,os,c3,c3
   16	1	0.337000	3	0.000000	# c3,os,c3,h1
   17	3	1.010000	3	0.000000	0.000000	2	0.000000	0.020000	1	180.000000	# oh,c3,c3,os
   18	2	0.000000	3	0.000000	0.250000	1	0.000000	# h1,c3,c3,os
   19	2	0.000000	3	0.000000	0.250000	1	0.000000	# h1,c3,c3,oh
   20	1	0.000000	3	0.000000	# ho,oh,c3,c3
   21	1	0.113000	3	0.000000	# ho,oh,c3,h1
   22	1	0.000000	3	0.000000	# X,c3,n2,X
   23	1	0.000000	2	180.000000	# X,c1,n2,X

Improper Coeffs

    1	1.100000	-1	2	# n,X,X,hn
    2	10.500000	-1	2	# c,X,X,o
    3	1.100000	-1	2	# n,c,c3,hn

Atoms

    1	1	1	-5.9811420023023316e-02	 1.0460920000000000e+00	 1.7732019999999999e+00	 6.6367649999999996e+00
    2	1	1	-3.2887501617237996e-02	 3.8239000000000002e-02	 2.9077440000000001e+00	 6.9205230000000002e+00
    3	1	1	-5.9811420023023316e-02	 8.5921599999999998e-01	 4.1562890000000001e+00	 7.3086849999999997e+00
    4	1	1	-2.7445080166070498e-02	-7.6359500000000002e-01	 3.1814019999999998e+00	 5.6369870000000004e+00
    5	1	1	 3.3239706963653456e-02	-1.9031330000000000e+00	 4.2042890000000002e+00	 5.7920489999999996e+00
    6	1	2	-3.1871876709041391e-01	-2.9632200000000002e+00	 3.9641020000000000e+00	 4.8224510000000000e+00
    7	1	3	 4.0684269777329318e-01	-2.7918799999999999e+00	 3.9845190000000001e+00	 3.4731529999999999e+00
    8	1	4	-2.2459831163975047e-01	-1.7357400000000001e+00	 4.1818780000000002e+00	 2.8899240000000002e+00
    9	1	5	-4.4955722076015997e-01	-3.9872770000000002e+00	 3.7332360000000002e+00	 2.8886340000000001e+00
   10	1	1	 9.3268435851154075e-02	-3.9504060000000001e+00	 3.5369790000000001e+00	 1.4678760000000000e+00
   11	1	1	-1.6367983607340351e-02	-5.0560510000000001e+00	 2.5473390000000000e+00	 1.1093590000000000e+00
   12	1	1	-2.6364278218211079e-02	-5.0295459999999999e+00	 2.0834229999999998e+00	-3.4628700000000001e-01
   13	1	1	 4.6679352794197285e-02	-3.7408160000000001e+00	 1.3478570000000001e+00	-7.0447800000000005e-01
   14	1	5	-3.8144863220763392e-01	-3.9228179999999999e+00	 6.2878100000000003e-01	-1.9269210000000001e+00
   15	1	1	 4.6638177757071145e-02	-2.6854540000000000e+00	 3.6762400000000001e-01	-2.6039469999999998e+00
   16	1	1	-2.7414138009193897e-02	-1.8337140000000001e+00	-6.6718299999999997e-01	-1.8726579999999999e+00
   17	1	1	-2.7414138040585737e-02	-4.4645099999999999e-01	-8.2070900000000002e-01	-2.4890159999999999e+00
   18	1	1	 4.6638169849841753e-02	 3.8096999999999998e-01	-1.8459630000000000e+00	-1.7186560000000000e+00
   19	1	5	-3.8144938196271821e-01	 1.7163269999999999e+00	-1.8280680000000000e+00	-2.2163780000000002e+00
   20	1	1	 4.6638169849841704e-02	 2.5445030000000002e+00	-2.7780369999999999e+00	-1.5432859999999999e+00
   21	1	1	-2.7414138040644142e-02	 4.0014580000000004e+00	-2.5165880000000000e+00	-1.9091140000000000e+00
   22	1	1	-2.7414138040644142e-02	 4.5074370000000004e+00	-1.2066140000000001e+00	-1.3052800000000000e+00
   23	1	1	 4.6638169849841704e-02	 5.9025280000000002e+00	-8.4830399999999995e-01	-1.8035509999999999e+00
   24	1	5	-3.8144938196271821e-01	 6.3548629999999999e+00	 2.8077900000000000e-01	-1.0558129999999999e+00
   25	1	1	 4.6638169849841704e-02	 7.4153630000000001e+00	 9.9618200000000001e-01	-1.6847080000000001e+00
   26	1	1	-2.7414138040644142e-02	 8.7269319999999997e+00	 2.1743699999999999e-01	-1.7649610000000000e+00
   27	1	1	-2.7414138040644142e-02	 9.1723110000000005e+00	-3.3304899999999998e-01	-4.0665899999999999e-01
   28	1	1	 4.6638169849841704e-02	 1.0581333000000001e+01	-9.2527400000000004e-01	-4.4710600000000000e-01
   29	1	5	-3.8144938196271821e-01	 1.0766090000000000e+01	-1.7685780000000000e+00	-1.5793940000000000e+00
   30	1	1	 4.6638169849841704e-02	 1.0751814000000000e+01	-3.1679879999999998e+00	-1.3103300000000000e+00
   31	1	1	-2.7414138040644142e-02	 9.3657769999999996e+00	-3.6808209999999999e+00	-9.2687200000000003e-01
   32	1	1	-2.7414138040644142e-02	 9.2564499999999992e+00	-5.2094630000000004e+00	-9.5909500000000003e-01
   33	1	1	 4.6638169849841704e-02	 9.2589839999999999e+00	-5.7908039999999996e+00	-2.3721160000000001e+00
   34	1	5	-3.8144938196271821e-01	 8.1549549999999993e+00	-5.2495409999999998e+00	-3.0921029999999998e+00
   35	1	1	 4.6638169849841704e-02	 8.2133990000000008e+00	-5.5543290000000001e+00	-4.4830379999999996e+00
   36	1	1	-2.7414138040644142e-02	 6.9823420000000000e+00	-4.9678480000000000e+00	-5.1667790000000000e+00
   37	1	1	-2.7414138040644142e-02	 6.9408269999999996e+00	-3.4410580000000000e+00	-5.0753500000000003e+00
   38	1	1	 4.6638169849841704e-02	 5.6554010000000003e+00	-2.8829910000000001e+00	-5.6736000000000004e+00
   39	1	5	-3.8144938196271821e-01	 5.6627280000000004e+00	-1.4638540000000000e+00	-5.5189029999999999e+00
   40	1	1	 4.6638169849841704e-02	 4.3629870000000004e+00	-9.0769699999999998e-01	-5.7115910000000003e+00
   41	1	1	-2.7414138040644142e-02	 4.4480750000000002e+00	 6.0868500000000003e-01	-5.5671369999999998e+00
   42	1	1	-2.7414138040644142e-02	 3.0869640000000000e+00	 1.2663359999999999e+00	-5.3505089999999997e+00
   43	1	1	 4.6638169849841704e-02	 2.0861550000000002e+00	 1.0007100000000000e+00	-6.4684679999999997e+00
   44	1	5	-3.8144938196271821e-01	 8.4437300000000004e-01	 1.5989700000000000e+00	-6.0997230000000000e+00
   45	1	1	 4.6638169849841753e-02	-2.0022499999999999e-01	 1.2552310000000000e+00	-7.0072999999999999e+00
   46	1	1	-2.7414138040585737e-02	-1.5104800000000000e+00	 1.7630600000000001e+00	-6.4217829999999996e+00
   47	1	1	-2.7414138009193897e-02	-2.7095379999999998e+00	 1.2813070000000000e+00	-7.2279070000000001e+00
   48	1	1	 4.6638177757071145e-02	-4.0216719999999997e+00	 1.6706730000000001e+00	-6.5605659999999997e+00
   49	1	5	-3.8144863220763392e-01	-5.0853719999999996e+00	 1.0640010000000000e+00	-7.2931030000000003e+00
   50	1	1	 4.6679352794188923e-02	-6.3322250000000002e+00	 1.1131780000000000e+00	-6.6006340000000003e+00
   51	1	1	-2.6364278222717957e-02	-6.4503560000000002e+00	-6.1400999999999997e-02	-5.6307799999999997e+00
   52	1	1	-1.6367984773930918e-02	-7.8004360000000004e+00	-6.3125000000000001e-02	-4.9159439999999996e+00
   53	1	1	 9.3268297393392666e-02	-7.9271649999999996e+00	-1.2109799999999999e+00	-3.9173760000000000e+00
   54	1	5	-4.4956275553573938e-01	-6.9208470000000002e+00	-1.0617540000000001e+00	-2.9071470000000001e+00
   55	1	3	 4.0664373850152252e-01	-7.1907079999999999e+00	-1.6780560000000000e+00	-1.7329170000000000e+00
   56	1	4	-2.2460728835031044e-01	-8.1798079999999995e+00	-2.3568570000000002e+00	-1.5019830000000001e+00
   57	1	2	-3.2094055444743602e-01	-6.1952350000000003e+00	-1.4033709999999999e+00	-8.4389700000000001e-01
   58	1	1	 2.6215617868968109e-02	-6.2707210000000000e+00	-1.7740370000000001e+00	 5.5225700000000000e-01
   59	1	1	-1.2560648533378460e-02	-5.3783890000000003e+00	-2.9845549999999998e+00	 9.7050000000000003e-01
   60	1	1	-5.7857248886752470e-02	-5.6728769999999997e+00	-4.1738119999999999e+00	 3.2943000000000000e-02
   61	1	1	-2.5499505657057036e-02	-3.8799679999999999e+00	-2.6106009999999999e+00	 8.7214400000000003e-01
   62	1	1	 3.3237711897424735e-02	-3.3667840000000000e+00	-1.9427770000000000e+00	 2.1484860000000001e+00
   63	1	2	-3.1871749637189273e-01	-2.0035080000000001e+00	-1.4740489999999999e+00	 1.9663990000000000e+00
   64	1	3	 4.0692732197293491e-01	-1.5998410000000001e+00	-2.0549300000000001e-01	 2.2445140000000001e+00
   65	1	4	-2.2459665713415267e-01	-2.3243230000000001e+00	 7.0081400000000005e-01	 2.6253639999999998e+00
   66	1	5	-4.4711367139330127e-01	-2.6945500000000000e-01	-1.0385800000000001e-01	 2.0082130000000000e+00
   67	1	1	 1.1624355645730902e-01	 2.9143100000000000e-01	 1.1920310000000001e+00	 2.2665999999999999e+00
   68	1	1	 7.7423929116619453e-02	 1.1239900000000000e-01	 2.1179180000000000e+00	 1.0693090000000001e+00
   69	1	6	-3.9283114776201061e-01	 4.6024100000000001e-01	 3.4541189999999999e+00	 1.4030430000000000e+00
   70	1	1	-2.7445112913841066e-02	-3.4399670000000002e+00	-2.8792300000000002e+00	 3.3650899999999999e+00
   71	1	1	-3.2889497444773569e-02	-4.6311470000000003e+00	-3.8701750000000001e+00	 3.3469850000000001e+00
   72	1	1	-5.9811436155435216e-02	-5.1845650000000001e+00	-4.0128370000000002e+00	 4.7820970000000003e+00
   73	1	1	-5.9811436155435216e-02	-4.1506619999999996e+00	-5.2688160000000002e+00	 2.9142610000000002e+00
   74	1	1	-4.0845954822114616e-02	-5.7693930000000000e+00	-3.3499919999999999e+00	 2.4367209999999999e+00
   75	1	1	-2.5384002652876665e-02	-2.4858509999999998e+00	 4.2508879999999998e+00	 7.2149999999999999e+00
   76	1	1	-9.6202154426603820e-03	-2.3751329999999999e+00	 2.9226019999999999e+00	 8.0005469999999992e+00
   77	1	1	-5.7741549890989764e-02	-2.9072330000000002e+00	 3.1766269999999999e+00	 9.4313029999999998e+00
   78	1	1	 5.7013979455580517e-02	-3.2636400000000001e+00	 1.8304149999999999e+00	 7.3297160000000003e+00
   79	1	7	-2.0537085793959564e-01	-3.2725629999999999e+00	 5.9826900000000005e-01	 8.1379690000000000e+00
   80	1	8	 2.3445713653111641e-01	-3.7591820000000000e+00	-3.2051900000000000e-01	 7.5940300000000001e+00
   81	1	4	-2.1137963838384621e-01	-4.2483810000000002e+00	-1.2341409999999999e+00	 7.0398930000000002e+00
   82	1	1	-4.0730403146522438e-02	-8.8571000000000000e-01	 2.4782980000000001e+00	 8.0942150000000002e+00
   83	1	9	 2.3593134302910084e-02	 5.3255399999999997e-01	 8.5315399999999997e-01	 6.3348000000000004e+00
   84	1	9	 2.3593134302910084e-02	 1.7351289999999999e+00	 2.0467930000000001e+00	 5.8295159999999999e+00
   85	1	9	 2.3593134302910084e-02	 1.6451430000000000e+00	 1.5445960000000001e+00	 7.5255359999999998e+00
   86	1	9	 2.3593134302910084e-02	 1.5163679999999999e+00	 4.4648960000000004e+00	 6.4873779999999996e+00
   87	1	9	 2.3593134302910084e-02	 2.2822999999999999e-01	 5.0119920000000002e+00	 7.5607780000000000e+00
   88	1	9	 2.3593134302910084e-02	 1.4955760000000000e+00	 3.9539160000000000e+00	 8.1780620000000006e+00
   89	1	9	 2.9307436796180777e-02	-8.4817000000000004e-02	 3.5275699999999999e+00	 4.8456390000000003e+00
   90	1	9	 2.9307436796180777e-02	-1.1657620000000000e+00	 2.2312259999999999e+00	 5.2633089999999996e+00
   91	1	10	 5.2988923328362351e-02	-1.5098229999999999e+00	 5.2014630000000004e+00	 5.5550170000000003e+00
   92	1	11	 1.6687411483171058e-01	-3.9172729999999998e+00	 3.8092310000000000e+00	 5.1170349999999996e+00
   93	1	10	 7.0751355637436897e-02	-2.9771179999999999e+00	 3.1512989999999999e+00	 1.1559150000000000e+00
   94	1	10	 7.0751355637436897e-02	-4.1257619999999999e+00	 4.5002690000000003e+00	 9.7766600000000004e-01
   95	1	9	 3.0226219566892313e-02	-4.9929280000000000e+00	 1.6745040000000000e+00	 1.7720819999999999e+00
   96	1	9	 3.0226219566892313e-02	-6.0283170000000004e+00	 3.0069689999999998e+00	 1.3267840000000000e+00
   97	1	9	 2.9135872513157364e-02	-5.1591370000000003e+00	 2.9379990000000000e+00	-1.0214440000000000e+00
   98	1	9	 2.9135872513157364e-02	-5.8917560000000000e+00	 1.4315750000000000e+00	-5.2678700000000001e-01
   99	1	10	 5.6656703904542888e-02	-3.4950770000000002e+00	 6.2747399999999998e-01	 7.9777000000000001e-02
  100	1	10	 5.6656703904542888e-02	-2.9208300000000000e+00	 2.0666600000000002e+00	-8.0504600000000004e-01
  101	1	10	 5.6655979446283575e-02	-2.9413140000000002e+00	-1.3545000000000000e-02	-3.5983190000000000e+00
  102	1	10	 5.6655979446283575e-02	-2.1428310000000002e+00	 1.3090280000000001e+00	-2.7497880000000001e+00
  103	1	9	 2.9094350169944872e-02	-1.7219570000000000e+00	-3.8830999999999999e-01	-8.2052400000000003e-01
  104	1	9	 2.9094350169944872e-02	-2.3585300000000000e+00	-1.6297400000000000e+00	-1.8785320000000001e+00
  105	1	9	 2.9094350169889212e-02	-5.2084900000000001e-01	-1.1229009999999999e+00	-3.5407050000000000e+00
  106	1	9	 2.9094350169889212e-02	 7.5861999999999999e-02	 1.4428600000000000e-01	-2.4870109999999999e+00
  107	1	10	 5.6655979416191618e-02	 3.9344499999999999e-01	-1.5931730000000000e+00	-6.5194200000000002e-01
  108	1	10	 5.6655979416191618e-02	-4.6522000000000001e-02	-2.8477679999999999e+00	-1.8414910000000000e+00
  109	1	10	 5.6655979416191618e-02	 2.4090929999999999e+00	-2.7061310000000001e+00	-4.5761700000000000e-01
  110	1	10	 5.6655979416191618e-02	 2.2553079999999999e+00	-3.7834370000000002e+00	-1.8685149999999999e+00
  111	1	9	 2.9094350169889163e-02	 4.0989899999999997e+00	-2.4761229999999999e+00	-2.9973980000000000e+00
  112	1	9	 2.9094350169889163e-02	 4.6223450000000001e+00	-3.3451279999999999e+00	-1.5494440000000000e+00
  113	1	9	 2.9094350169889163e-02	 4.5138680000000004e+00	-1.2805200000000001e+00	-2.1040900000000001e-01
  114	1	9	 2.9094350169889163e-02	 3.8273039999999998e+00	-3.7941500000000000e-01	-1.5439860000000001e+00
  115	1	10	 5.6655979416191618e-02	 5.8672540000000000e+00	-6.1415799999999998e-01	-2.8719570000000001e+00
  116	1	10	 5.6655979416191618e-02	 6.5912910000000000e+00	-1.6834249999999999e+00	-1.6429130000000001e+00
  117	1	10	 5.6655979416191618e-02	 7.0993610000000000e+00	 1.3223009999999999e+00	-2.6826349999999999e+00
  118	1	10	 5.6655979416191618e-02	 7.5750010000000003e+00	 1.9043230000000000e+00	-1.0928199999999999e+00
  119	1	9	 2.9094350169889163e-02	 9.5013500000000004e+00	 8.7735300000000005e-01	-2.1736040000000001e+00
  120	1	9	 2.9094350169889163e-02	 8.6109369999999998e+00	-6.1431300000000000e-01	-2.4696549999999999e+00
  121	1	9	 2.9094350169889163e-02	 9.1435999999999993e+00	 4.5739500000000000e-01	 3.5252699999999998e-01
  122	1	9	 2.9094350169889163e-02	 8.4631390000000000e+00	-1.1029000000000000e+00	-8.6062000000000000e-02
  123	1	10	 5.6655979416191618e-02	 1.0817405000000001e+01	-1.4420999999999999e+00	 4.9033700000000002e-01
  124	1	10	 5.6655979416191618e-02	 1.1301170000000001e+01	-1.0538599999999999e-01	-5.4919099999999998e-01
  125	1	10	 5.6655979416191618e-02	 1.1491027000000001e+01	-3.4069360000000000e+00	-5.3675099999999998e-01
  126	1	10	 5.6655979416191618e-02	 1.1091694000000000e+01	-3.6476620000000000e+00	-2.2322799999999998e+00
  127	1	9	 2.9094350169889163e-02	 8.6061890000000005e+00	-3.2257380000000002e+00	-1.5725720000000001e+00
  128	1	9	 2.9094350169889163e-02	 9.1351300000000002e+00	-3.3430240000000002e+00	 9.0468000000000007e-02
  129	1	9	 2.9094350169889163e-02	 1.0066618000000000e+01	-5.6570710000000002e+00	-3.7252900000000000e-01
  130	1	9	 2.9094350169889163e-02	 8.3112080000000006e+00	-5.4840590000000002e+00	-4.7437900000000000e-01
  131	1	10	 5.6655979416191618e-02	 9.1487339999999993e+00	-6.8798579999999996e+00	-2.3222470000000000e+00
  132	1	10	 5.6655979416191618e-02	 1.0199106000000000e+01	-5.5643739999999999e+00	-2.8854359999999999e+00
  133	1	10	 5.6655979416191618e-02	 9.1268630000000002e+00	-5.1330840000000002e+00	-4.9181450000000000e+00
  134	1	10	 5.6655979416191618e-02	 8.2247950000000003e+00	-6.6419309999999996e+00	-4.6162609999999997e+00
  135	1	9	 2.9094350169889163e-02	 6.9702370000000000e+00	-5.2746110000000002e+00	-6.2188689999999998e+00
  136	1	9	 2.9094350169889163e-02	 6.0826260000000003e+00	-5.3765450000000001e+00	-4.6904640000000004e+00
  137	1	9	 2.9094350169889163e-02	 7.0162500000000003e+00	-3.1132520000000001e+00	-4.0311750000000002e+00
  138	1	9	 2.9094350169889163e-02	 7.8064039999999997e+00	-3.0054669999999999e+00	-5.5894539999999999e+00
  139	1	10	 5.6655979416191618e-02	 4.7899099999999999e+00	-3.3170829999999998e+00	-5.1597970000000002e+00
  140	1	10	 5.6655979416191618e-02	 5.5876260000000002e+00	-3.1228330000000000e+00	-6.7404830000000002e+00
  141	1	10	 5.6655979416191618e-02	 3.9992909999999999e+00	-1.1772780000000000e+00	-6.7094519999999997e+00
  142	1	10	 5.6655979416191618e-02	 3.6801040000000000e+00	-1.3190440000000001e+00	-4.9608109999999996e+00
  143	1	9	 2.9094350169889163e-02	 5.1004430000000003e+00	 8.6207199999999995e-01	-4.7224979999999999e+00
  144	1	9	 2.9094350169889163e-02	 4.9361800000000002e+00	 1.0294850000000000e+00	-6.4547290000000004e+00
  145	1	9	 2.9094350169889163e-02	 2.6622490000000001e+00	 9.2454199999999997e-01	-4.3974339999999996e+00
  146	1	9	 2.9094350169889163e-02	 3.2206619999999999e+00	 2.3494560000000000e+00	-5.2372930000000002e+00
  147	1	10	 5.6655979416191618e-02	 1.9383170000000001e+00	-7.5942999999999997e-02	-6.6019340000000000e+00
  148	1	10	 5.6655979416191618e-02	 2.4352410000000000e+00	 1.4348420000000000e+00	-7.4117740000000003e+00
  149	1	10	 5.6655979416191618e-02	-5.4229999999999999e-03	 1.7143729999999999e+00	-7.9827380000000003e+00
  150	1	10	 5.6655979416191618e-02	-2.4225600000000000e-01	 1.6612299999999999e-01	-7.1255280000000001e+00
  151	1	9	 2.9094350169889212e-02	-1.4939290000000001e+00	 2.8588030000000000e+00	-6.3742970000000003e+00
  152	1	9	 2.9094350169889212e-02	-1.5927260000000001e+00	 1.4195920000000000e+00	-5.3831490000000004e+00
  153	1	9	 2.9094350169944872e-02	-2.6756799999999998e+00	 1.8984400000000001e-01	-7.3379269999999996e+00
  154	1	9	 2.9094350169944872e-02	-2.6769200000000000e+00	 1.6874540000000000e+00	-8.2462689999999998e+00
  155	1	10	 5.6655979446283575e-02	-4.0251929999999998e+00	 1.3286500000000001e+00	-5.5208969999999997e+00
  156	1	10	 5.6655979446283575e-02	-4.1523589999999997e+00	 2.7584710000000001e+00	-6.5724020000000003e+00
  157	1	10	 5.6656703904542881e-02	-7.1203649999999996e+00	 1.0400830000000001e+00	-7.3578029999999996e+00
  158	1	10	 5.6656703904542881e-02	-6.4531440000000000e+00	 2.0768580000000001e+00	-6.0916550000000003e+00
  159	1	9	 2.9135872513149391e-02	-5.6367440000000002e+00	-2.4223000000000001e-02	-4.8984100000000002e+00
  160	1	9	 2.9135872513149391e-02	-6.3124050000000000e+00	-1.0003899999999999e+00	-6.1811840000000000e+00
  161	1	9	 3.0226219562580137e-02	-8.6094100000000005e+00	-1.3480200000000001e-01	-5.6519589999999997e+00
  162	1	9	 3.0226219562580137e-02	-7.9189660000000002e+00	 8.8809899999999997e-01	-4.3826029999999996e+00
  163	1	10	 7.0751354513914483e-02	-8.9314429999999998e+00	-1.1804429999999999e+00	-3.4785430000000002e+00
  164	1	10	 7.0751354513914483e-02	-7.7830159999999999e+00	-2.1748069999999999e+00	-4.4176599999999997e+00
  165	1	11	 1.6660637654871013e-01	-5.4420440000000001e+00	-8.2102500000000000e-01	-1.2005930000000000e+00
  166	1	10	 4.9812076801800262e-02	-7.3183460000000000e+00	-1.9873430000000001e+00	 7.9935800000000001e-01
  167	1	10	 4.9812076801800262e-02	-5.9898689999999997e+00	-8.7989499999999998e-01	 1.1204419999999999e+00
  168	1	9	 2.3669299166299038e-02	-5.3591699999999998e+00	-3.9613670000000001e+00	-9.9504499999999996e-01
  169	1	9	 2.3669299166299038e-02	-5.1473240000000002e+00	-5.0806719999999999e+00	 3.4270400000000001e-01
  170	1	9	 2.3669299166299038e-02	-6.7432100000000004e+00	-4.4079610000000002e+00	 1.7094999999999999e-02
  171	1	9	 2.9384510281214599e-02	-3.2686670000000002e+00	-3.4973510000000001e+00	 6.6219799999999995e-01
  172	1	9	 2.9384510281214599e-02	-3.7146780000000001e+00	-1.9475070000000001e+00	 1.6677999999999998e-02
  173	1	10	 5.2988907320204559e-02	-3.9968530000000002e+00	-1.0693070000000000e+00	 2.3566280000000002e+00
  174	1	11	 1.6687412633301671e-01	-1.2764160000000000e+00	-2.1179079999999999e+00	 1.6871410000000000e+00
  175	1	10	 7.3234707124522680e-02	-1.2788400000000000e-01	 1.6272139999999999e+00	 3.1796300000000000e+00
  176	1	10	 7.3234707124522680e-02	 1.3598220000000001e+00	 1.0564089999999999e+00	 2.4689969999999999e+00
  177	1	10	 5.9990755002538983e-02	-9.1346899999999998e-01	 2.1026310000000001e+00	 6.9195700000000004e-01
  178	1	10	 5.9990755002538983e-02	 7.5188600000000005e-01	 1.7870779999999999e+00	 2.4406400000000000e-01
  179	1	12	 2.1021349548150839e-01	-2.5970700000000002e-01	 3.7999589999999999e+00	 1.9789010000000000e+00
  180	1	9	 2.9307436675055896e-02	-3.4805590000000000e+00	-2.2446600000000001e+00	 4.2612069999999997e+00
  181	1	9	 2.9307436675055896e-02	-2.5008580000000000e+00	-3.4410740000000000e+00	 3.4650669999999999e+00
  182	1	9	 2.3593134244104141e-02	-4.4068509999999996e+00	-4.3527490000000002e+00	 5.4755390000000004e+00
  183	1	9	 2.3593134244104141e-02	-6.0065569999999999e+00	-4.7367879999999998e+00	 4.8189940000000000e+00
  184	1	9	 2.3593134244104141e-02	-5.5683540000000002e+00	-3.0572759999999999e+00	 5.1567280000000002e+00
  185	1	9	 2.3593134244104141e-02	-4.9939039999999997e+00	-5.9602149999999998e+00	 2.8068070000000001e+00
  186	1	9	 2.3593134244104141e-02	-3.4691879999999999e+00	-5.6969479999999999e+00	 3.6591290000000001e+00
  187	1	9	 2.3593134244104141e-02	-3.6056100000000000e+00	-5.2505550000000003e+00	 1.9679219999999999e+00
  188	1	9	 2.7829100189780142e-02	-6.6008959999999997e+00	-4.0680480000000001e+00	 2.4303450000000000e+00
  189	1	9	 2.7829100189780142e-02	-6.1772010000000002e+00	-2.4503370000000002e+00	 2.9213809999999998e+00
  190	1	9	 2.9386472122884203e-02	-3.5305460000000002e+00	 4.5898170000000000e+00	 7.1905539999999997e+00
  191	1	9	 2.9386472122884203e-02	-1.9524030000000001e+00	 5.0290609999999996e+00	 7.7764100000000003e+00
  192	1	9	 2.3671236107673393e-02	-2.3711099999999998e+00	 4.0035809999999996e+00	 9.9113159999999993e+00
  193	1	9	 2.3671236107673393e-02	-3.9713470000000002e+00	 3.4380950000000001e+00	 9.4164189999999994e+00
  194	1	9	 2.3671236107673393e-02	-2.7848570000000001e+00	 2.2962660000000001e+00	 1.0071561000000001e+01
  195	1	10	 5.2992750461176838e-02	-2.9123440000000000e+00	 1.6062790000000000e+00	 6.3172810000000004e+00
  196	1	10	 5.2992750461176838e-02	-4.2918839999999996e+00	 2.2083189999999999e+00	 7.2381859999999998e+00
  197	1	9	 2.7831050077436224e-02	-8.4909900000000005e-01	 1.3877770000000000e+00	 8.2115709999999993e+00
  198	1	9	 2.7831050077436224e-02	-4.5025900000000002e-01	 2.8617940000000002e+00	 9.0276040000000002e+00

Bonds

    1	1	1	2
    2	1	2	3
    3	1	2	4
    4	1	4	5
    5	2	5	6
    6	3	6	7
    7	4	7	8
    8	5	7	9
    9	6	9	10
   10	1	10	11
   11	1	11	12
   12	1	12	13
   13	6	13	14
   14	6	14	15
   15	1	15	16
   16	1	16	17
   17	1	17	18
   18	6	18	19
   19	6	19	20
   20	1	20	21
   21	1	21	22
   22	1	22	23
   23	6	23	24
   24	6	24	25
   25	1	25	26
   26	1	26	27
   27	1	27	28
   28	6	28	29
   29	6	29	30
   30	1	30	31
   31	1	31	32
   32	1	32	33
   33	6	33	34
   34	6	34	35
   35	1	35	36
   36	1	36	37
   37	1	37	38
   38	6	38	39
   39	6	39	40
   40	1	40	41
   41	1	41	42
   42	1	42	43
   43	6	43	44
   44	6	44	45
   45	1	45	46
   46	1	46	47
   47	1	47	48
   48	6	48	49
   49	6	49	50
   50	1	50	51
   51	1	51	52
   52	1	52	53
   53	6	53	54
   54	5	54	55
   55	4	55	56
   56	3	55	57
   57	2	57	58
   58	1	58	59
   59	1	59	60
   60	1	59	61
   61	1	61	62
   62	2	62	63
   63	3	63	64
   64	4	64	65
   65	5	64	66
   66	6	66	67
   67	1	67	68
   68	7	68	69
   69	1	62	70
   70	1	70	71
   71	1	71	72
   72	1	71	73
   73	1	71	74
   74	1	5	75
   75	1	75	76
   76	1	76	77
   77	1	76	78
   78	8	78	79
   79	9	79	80
   80	10	80	81
   81	1	76	82
   82	1	82	2
   83	1	74	59
   84	11	1	83
   85	11	1	84
   86	11	1	85
   87	11	3	86
   88	11	3	87
   89	11	3	88
   90	11	4	89
   91	11	4	90
   92	12	5	91
   93	13	6	92
   94	12	10	93
   95	12	10	94
   96	11	11	95
   97	11	11	96
   98	11	12	97
   99	11	12	98
  100	12	13	99
  101	12	13	100
  102	12	15	101
  103	12	15	102
  104	11	16	103
  105	11	16	104
  106	11	17	105
  107	11	17	106
  108	12	18	107
  109	12	18	108
  110	12	20	109
  111	12	20	110
  112	11	21	111
  113	11	21	112
  114	11	22	113
  115	11	22	114
  116	12	23	115
  117	12	23	116
  118	12	25	117
  119	12	25	118
  120	11	26	119
  121	11	26	120
  122	11	27	121
  123	11	27	122
  124	12	28	123
  125	12	28	124
  126	12	30	125
  127	12	30	126
  128	11	31	127
  129	11	31	128
  130	11	32	129
  131	11	32	130
  132	12	33	131
  133	12	33	132
  134	12	35	133
  135	12	35	134
  136	11	36	135
  137	11	36	136
  138	11	37	137
  139	11	37	138
  140	12	38	139
  141	12	38	140
  142	12	40	141
  143	12	40	142
  144	11	41	143
  145	11	41	144
  146	11	42	145
  147	11	42	146
  148	12	43	147
  149	12	43	148
  150	12	45	149
  151	12	45	150
  152	11	46	151
  153	11	46	152
  154	11	47	153
  155	11	47	154
  156	12	48	155
  157	12	48	156
  158	12	50	157
  159	12	50	158
  160	11	51	159
  161	11	51	160
  162	11	52	161
  163	11	52	162
  164	12	53	163
  165	12	53	164
  166	13	57	165
  167	12	58	166
  168	12	58	167
  169	11	60	168
  170	11	60	169
  171	11	60	170
  172	11	61	171
  173	11	61	172
  174	12	62	173
  175	13	63	174
  176	12	67	175
  177	12	67	176
  178	12	68	177
  179	12	68	178
  180	14	69	179
  181	11	70	180
  182	11	70	181
  183	11	72	182
  184	11	72	183
  185	11	72	184
  186	11	73	185
  187	11	73	186
  188	11	73	187
  189	11	74	188
  190	11	74	189
  191	11	75	190
  192	11	75	191
  193	11	77	192
  194	11	77	193
  195	11	77	194
  196	12	78	195
  197	12	78	196
  198	11	82	197
  199	11	82	198

Angles

    1	1	2	1	83
    2	1	2	1	84
    3	1	2	1	85
    4	2	83	1	84
    5	2	83	1	85
    6	2	84	1	85
    7	3	1	2	3
    8	3	1	2	4
    9	3	1	2	82
   10	3	3	2	4
   11	3	3	2	82
   12	3	4	2	82
   13	1	2	3	86
   14	1	2	3	87
   15	1	2	3	88
   16	2	86	3	87
   17	2	86	3	88
   18	2	87	3	88
   19	3	2	4	5
   20	1	2	4	89
   21	1	2	4	90
   22	1	5	4	89
   23	1	5	4	90
   24	2	89	4	90
   25	4	4	5	6
   26	3	4	5	75
   27	5	4	5	91
   28	4	6	5	75
   29	6	6	5	91
   30	5	75	5	91
   31	7	5	6	7
   32	8	5	6	92
   33	9	7	6	92
   34	10	6	7	8
   35	11	6	7	9
   36	12	8	7	9
   37	13	7	9	10
   38	14	9	10	11
   39	15	9	10	93
   40	15	9	10	94
   41	5	11	10	93
   42	5	11	10	94
   43	16	93	10	94
   44	3	10	11	12
   45	1	10	11	95
   46	1	10	11	96
   47	1	12	11	95
   48	1	12	11	96
   49	2	95	11	96
   50	3	11	12	13
   51	1	11	12	97
   52	1	11	12	98
   53	1	13	12	97
   54	1	13	12	98
   55	2	97	12	98
   56	14	12	13	14
   57	5	12	13	99
   58	5	12	13	100
   59	15	14	13	99
   60	15	14	13	100
   61	16	99	13	100
   62	17	13	14	15
   63	14	14	15	16
   64	15	14	15	101
   65	15	14	15	102
   66	5	16	15	101
   67	5	16	15	102
   68	16	101	15	102
   69	3	15	16	17
   70	1	15	16	103
   71	1	15	16	104
   72	1	17	16	103
   73	1	17	16	104
   74	2	103	16	104
   75	3	16	17	18
   76	1	16	17	105
   77	1	16	17	106
   78	1	18	17	105
   79	1	18	17	106
   80	2	105	17	106
   81	14	17	18	19
   82	5	17	18	107
   83	5	17	18	108
   84	15	19	18	107
   85	15	19	18	108
   86	16	107	18	108
   87	17	18	19	20
   88	14	19	20	21
   89	15	19	20	109
   90	15	19	20	110
   91	5	21	20	109
   92	5	21	20	110
   93	16	109	20	110
   94	3	20	21	22
   95	1	20	21	111
   96	1	20	21	112
   97	1	22	21	111
   98	1	22	21	112
   99	2	111	21	112
  100	3	21	22	23
  101	1	21	22	113
  102	1	21	22	114
  103	1	23	22	113
  104	1	23	22	114
  105	2	113	22	114
  106	14	22	23	24
  107	5	22	23	115
  108	5	22	23	116
  109	15	24	23	115
  110	15	24	23	116
  111	16	115	23	116
  112	17	23	24	25
  113	14	24	25	26
  114	15	24	25	117
  115	15	24	25	118
  116	5	26	25	117
  117	5	26	25	118
  118	16	117	25	118
  119	3	25	26	27
  120	1	25	26	119
  121	1	25	26	120
  122	1	27	26	119
  123	1	27	26	120
  124	2	119	26	120
  125	3	26	27	28
  126	1	26	27	121
  127	1	26	27	122
  128	1	28	27	121
  129	1	28	27	122
  130	2	121	27	122
  131	14	27	28	29
  132	5	27	28	123
  133	5	27	28	124
  134	15	29	28	123
  135	15	29	28	124
  136	16	123	28	124
  137	17	28	29	30
  138	14	29	30	31
  139	15	29	30	125
  140	15	29	30	126
  141	5	31	30	125
  142	5	31	30	126
  143	16	125	30	126
  144	3	30	31	32
  145	1	30	31	127
  146	1	30	31	128
  147	1	32	31	127
  148	1	32	31	128
  149	2	127	31	128
  150	3	31	32	33
  151	1	31	32	129
  152	1	31	32	130
  153	1	33	32	129
  154	1	33	32	130
  155	2	129	32	130
  156	14	32	33	34
  157	5	32	33	131
  158	5	32	33	132
  159	15	34	33	131
  160	15	34	33	132
  161	16	131	33	132
  162	17	33	34	35
  163	14	34	35	36
  164	15	34	35	133
  165	15	34	35	134
  166	5	36	35	133
  167	5	36	35	134
  168	16	133	35	134
  169	3	35	36	37
  170	1	35	36	135
  171	1	35	36	136
  172	1	37	36	135
  173	1	37	36	136
  174	2	135	36	136
  175	3	36	37	38
  176	1	36	37	137
  177	1	36	37	138
  178	1	38	37	137
  179	1	38	37	138
  180	2	137	37	138
  181	14	37	38	39
  182	5	37	38	139
  183	5	37	38	140
  184	15	39	38	139
  185	15	39	38	140
  186	16	139	38	140
  187	17	38	39	40
  188	14	39	40	41
  189	15	39	40	141
  190	15	39	40	142
  191	5	41	40	141
  192	5	41	40	142
  193	16	141	40	142
  194	3	40	41	42
  195	1	40	41	143
  196	1	40	41	144
  197	1	42	41	143
  198	1	42	41	144
  199	2	143	41	144
  200	3	41	42	43
  201	1	41	42	145
  202	1	41	42	146
  203	1	43	42	145
  204	1	43	42	146
  205	2	145	42	146
  206	14	42	43	44
  207	5	42	43	147
  208	5	42	43	148
  209	15	44	43	147
  210	15	44	43	148
  211	16	147	43	148
  212	17	43	44	45
  213	14	44	45	46
  214	15	44	45	149
  215	15	44	45	150
  216	5	46	45	149
  217	5	46	45	150
  218	16	149	45	150
  219	3	45	46	47
  220	1	45	46	151
  221	1	45	46	152
  222	1	47	46	151
  223	1	47	46	152
  224	2	151	46	152
  225	3	46	47	48
  226	1	46	47	153
  227	1	46	47	154
  228	1	48	47	153
  229	1	48	47	154
  230	2	153	47	154
  231	14	47	48	49
  232	5	47	48	155
  233	5	47	48	156
  234	15	49	48	155
  235	15	49	48	156
  236	16	155	48	156
  237	17	48	49	50
  238	14	49	50	51
  239	15	49	50	157
  240	15	49	50	158
  241	5	51	50	157
  242	5	51	50	158
  243	16	157	50	158
  244	3	50	51	52
  245	1	50	51	159
  246	1	50	51	160
  247	1	52	51	159
  248	1	52	51	160
  249	2	159	51	160
  250	3	51	52	53
  251	1	51	52	161
  252	1	51	52	162
  253	1	53	52	161
  254	1	53	52	162
  255	2	161	52	162
  256	14	52	53	54
  257	5	52	53	163
  258	5	52	53	164
  259	15	54	53	163
  260	15	54	53	164
  261	16	163	53	164
  262	13	53	54	55
  263	12	54	55	56
  264	11	54	55	57
  265	10	56	55	57
  266	7	55	57	58
  267	9	55	57	165
  268	8	58	57	165
  269	4	57	58	59
  270	6	57	58	166
  271	6	57	58	167
  272	5	59	58	166
  273	5	59	58	167
  274	16	166	58	167
  275	3	58	59	60
  276	3	58	59	61
  277	3	58	59	74
  278	3	60	59	61
  279	3	60	59	74
  280	3	61	59	74
  281	1	59	60	168
  282	1	59	60	169
  283	1	59	60	170
  284	2	168	60	169
  285	2	168	60	170
  286	2	169	60	170
  287	3	59	61	62
  288	1	59	61	171
  289	1	59	61	172
  290	1	62	61	171
  291	1	62	61	172
  292	2	171	61	172
  293	4	61	62	63
  294	3	61	62	70
  295	5	61	62	173
  296	4	63	62	70
  297	6	63	62	173
  298	5	70	62	173
  299	7	62	63	64
  300	8	62	63	174
  301	9	64	63	174
  302	10	63	64	65
  303	11	63	64	66
  304	12	65	64	66
  305	13	64	66	67
  306	14	66	67	68
  307	15	66	67	175
  308	15	66	67	176
  309	5	68	67	175
  310	5	68	67	176
  311	16	175	67	176
  312	18	67	68	69
  313	5	67	68	177
  314	5	67	68	178
  315	19	69	68	177
  316	19	69	68	178
  317	16	177	68	178
  318	20	68	69	179
  319	3	62	70	71
  320	1	62	70	180
  321	1	62	70	181
  322	1	71	70	180
  323	1	71	70	181
  324	2	180	70	181
  325	3	70	71	72
  326	3	70	71	73
  327	3	70	71	74
  328	3	72	71	73
  329	3	72	71	74
  330	3	73	71	74
  331	1	71	72	182
  332	1	71	72	183
  333	1	71	72	184
  334	2	182	72	183
  335	2	182	72	184
  336	2	183	72	184
  337	1	71	73	185
  338	1	71	73	186
  339	1	71	73	187
  340	2	185	73	186
  341	2	185	73	187
  342	2	186	73	187
  343	3	71	74	59
  344	1	71	74	188
  345	1	71	74	189
  346	1	59	74	188
  347	1	59	74	189
  348	2	188	74	189
  349	3	5	75	76
  350	1	5	75	190
  351	1	5	75	191
  352	1	76	75	190
  353	1	76	75	191
  354	2	190	75	191
  355	3	75	76	77
  356	3	75	76	78
  357	3	75	76	82
  358	3	77	76	78
  359	3	77	76	82
  360	3	78	76	82
  361	1	76	77	192
  362	1	76	77	193
  363	1	76	77	194
  364	2	192	77	193
  365	2	192	77	194
  366	2	193	77	194
  367	21	76	78	79
  368	5	76	78	195
  369	5	76	78	196
  370	22	79	78	195
  371	22	79	78	196
  372	16	195	78	196
  373	23	78	79	80
  374	24	79	80	81
  375	3	76	82	2
  376	1	76	82	197
  377	1	76	82	198
  378	1	2	82	197
  379	1	2	82	198
  380	2	197	82	198

Dihedrals

    1	1	83	1	2	3
    2	1	83	1	2	4
    3	1	83	1	2	82
    4	1	84	1	2	3
    5	1	84	1	2	4
    6	1	84	1	2	82
    7	1	85	1	2	3
    8	1	85	1	2	4
    9	1	85	1	2	82
   10	1	1	2	3	86
   11	1	1	2	3	87
   12	1	1	2	3	88
   13	1	4	2	3	86
   14	1	4	2	3	87
   15	1	4	2	3	88
   16	1	82	2	3	86
   17	1	82	2	3	87
   18	1	82	2	3	88
   19	2	1	2	4	5
   20	1	1	2	4	89
   21	1	1	2	4	90
   22	2	3	2	4	5
   23	1	3	2	4	89
   24	1	3	2	4	90
   25	2	82	2	4	5
   26	1	82	2	4	89
   27	1	82	2	4	90
   28	3	2	4	5	6
   29	2	2	4	5	75
   30	3	2	4	5	91
   31	3	89	4	5	6
   32	1	89	4	5	75
   33	3	89	4	5	91
   34	3	90	4	5	6
   35	1	90	4	5	75
   36	3	90	4	5	91
   37	4	4	5	6	7
   38	5	4	5	6	92
   39	4	75	5	6	7
   40	5	75	5	6	92
   41	6	91	5	6	7
   42	5	91	5	6	92
   43	7	5	6	7	8
   44	7	5	6	7	9
   45	8	92	6	7	8
   46	7	92	6	7	9
   47	9	6	7	9	10
   48	10	8	7	9	10
   49	11	7	9	10	11
   50	12	7	9	10	93
   51	12	7	9	10	94
   52	3	9	10	11	12
   53	13	9	10	11	95
   54	13	9	10	11	96
   55	3	93	10	11	12
   56	3	93	10	11	95
   57	3	93	10	11	96
   58	3	94	10	11	12
   59	3	94	10	11	95
   60	3	94	10	11	96
   61	2	10	11	12	13
   62	1	10	11	12	97
   63	1	10	11	12	98
   64	1	95	11	12	13
   65	14	95	11	12	97
   66	14	95	11	12	98
   67	1	96	11	12	13
   68	14	96	11	12	97
   69	14	96	11	12	98
   70	3	11	12	13	14
   71	3	11	12	13	99
   72	3	11	12	13	100
   73	13	97	12	13	14
   74	3	97	12	13	99
   75	3	97	12	13	100
   76	13	98	12	13	14
   77	3	98	12	13	99
   78	3	98	12	13	100
   79	15	12	13	14	15
   80	16	99	13	14	15
   81	16	100	13	14	15
   82	15	13	14	15	16
   83	16	13	14	15	101
   84	16	13	14	15	102
   85	3	14	15	16	17
   86	13	14	15	16	103
   87	13	14	15	16	104
   88	3	101	15	16	17
   89	3	101	15	16	103
   90	3	101	15	16	104
   91	3	102	15	16	17
   92	3	102	15	16	103
   93	3	102	15	16	104
   94	2	15	16	17	18
   95	1	15	16	17	105
   96	1	15	16	17	106
   97	1	103	16	17	18
   98	14	103	16	17	105
   99	14	103	16	17	106
  100	1	104	16	17	18
  101	14	104	16	17	105
  102	14	104	16	17	106
  103	3	16	17	18	19
  104	3	16	17	18	107
  105	3	16	17	18	108
  106	13	105	17	18	19
  107	3	105	17	18	107
  108	3	105	17	18	108
  109	13	106	17	18	19
  110	3	106	17	18	107
  111	3	106	17	18	108
  112	15	17	18	19	20
  113	16	107	18	19	20
  114	16	108	18	19	20
  115	15	18	19	20	21
  116	16	18	19	20	109
  117	16	18	19	20	110
  118	3	19	20	21	22
  119	13	19	20	21	111
  120	13	19	20	21	112
  121	3	109	20	21	22
  122	3	109	20	21	111
  123	3	109	20	21	112
  124	3	110	20	21	22
  125	3	110	20	21	111
  126	3	110	20	21	112
  127	2	20	21	22	23
  128	1	20	21	22	113
  129	1	20	21	22	114
  130	1	111	21	22	23
  131	14	111	21	22	113
  132	14	111	21	22	114
  133	1	112	21	22	23
  134	14	112	21	22	113
  135	14	112	21	22	114
  136	3	21	22	23	24
  137	3	21	22	23	115
  138	3	21	22	23	116
  139	13	113	22	23	24
  140	3	113	22	23	115
  141	3	113	22	23	116
  142	13	114	22	23	24
  143	3	114	22	23	115
  144	3	114	22	23	116
  145	15	22	23	24	25
  146	16	115	23	24	25
  147	16	116	23	24	25
  148	15	23	24	25	26
  149	16	23	24	25	117
  150	16	23	24	25	118
  151	3	24	25	26	27
  152	13	24	25	26	119
  153	13	24	25	26	120
  154	3	117	25	26	27
  155	3	117	25	26	119
  156	3	117	25	26	120
  157	3	118	25	26	27
  158	3	118	25	26	119
  159	3	118	25	26	120
  160	2	25	26	27	28
  161	1	25	26	27	121
  162	1	25	26	27	122
  163	1	119	26	27	28
  164	14	119	26	27	121
  165	14	119	26	27	122
  166	1	120	26	27	28
  167	14	120	26	27	121
  168	14	120	26	27	122
  169	3	26	27	28	29
  170	3	26	27	28	123
  171	3	26	27	28	124
  172	13	121	27	28	29
  173	3	121	27	28	123
  174	3	121	27	28	124
  175	13	122	27	28	29
  176	3	122	27	28	123
  177	3	122	27	28	124
  178	15	27	28	29	30
  179	16	123	28	29	30
  180	16	124	28	29	30
  181	15	28	29	30	31
  182	16	28	29	30	125
  183	16	28	29	30	126
  184	3	29	30	31	32
  185	13	29	30	31	127
  186	13	29	30	31	128
  187	3	125	30	31	32
  188	3	125	30	31	127
  189	3	125	30	31	128
  190	3	126	30	31	32
  191	3	126	30	31	127
  192	3	126	30	31	128
  193	2	30	31	32	33
  194	1	30	31	32	129
  195	1	30	31	32	130
  196	1	127	31	32	33
  197	14	127	31	32	129
  198	14	127	31	32	130
  199	1	128	31	32	33
  200	14	128	31	32	129
  201	14	128	31	32	130
  202	3	31	32	33	34
  203	3	31	32	33	131
  204	3	31	32	33	132
  205	13	129	32	33	34
  206	3	129	32	33	131
  207	3	129	32	33	132
  208	13	130	32	33	34
  209	3	130	32	33	131
  210	3	130	32	33	132
  211	15	32	33	34	35
  212	16	131	33	34	35
  213	16	132	33	34	35
  214	15	33	34	35	36
  215	16	33	34	35	133
  216	16	33	34	35	134
  217	3	34	35	36	37
  218	13	34	35	36	135
  219	13	34	35	36	136
  220	3	133	35	36	37
  221	3	133	35	36	135
  222	3	133	35	36	136
  223	3	134	35	36	37
  224	3	134	35	36	135
  225	3	134	35	36	136
  226	2	35	36	37	38
  227	1	35	36	37	137
  228	1	35	36	37	138
  229	1	135	36	37	38
  230	14	135	36	37	137
  231	14	135	36	37	138
  232	1	136	36	37	38
  233	14	136	36	37	137
  234	14	136	36	37	138
  235	3	36	37	38	39
  236	3	36	37	38	139
  237	3	36	37	38	140
  238	13	137	37	38	39
  239	3	137	37	38	139
  240	3	137	37	38	140
  241	13	138	37	38	39
  242	3	138	37	38	139
  243	3	138	37	38	140
  244	15	37	38	39	40
  245	16	139	38	39	40
  246	16	140	38	39	40
  247	15	38	39	40	41
  248	16	38	39	40	141
  249	16	38	39	40	142
  250	3	39	40	41	42
  251	13	39	40	41	143
  252	13	39	40	41	144
  253	3	141	40	41	42
  254	3	141	40	41	143
  255	3	141	40	41	144
  256	3	142	40	41	42
  257	3	142	40	41	143
  258	3	142	40	41	144
  259	2	40	41	42	43
  260	1	40	41	42	145
  261	1	40	41	42	146
  262	1	143	41	42	43
  263	14	143	41	42	145
  264	14	143	41	42	146
  265	1	144	41	42	43
  266	14	144	41	42	145
  267	14	144	41	42	146
  268	3	41	42	43	44
  269	3	41	42	43	147
  270	3	41	42	43	148
  271	13	145	42	43	44
  272	3	145	42	43	147
  273	3	145	42	43	148
  274	13	146	42	43	44
  275	3	146	42	43	147
  276	3	146	42	43	148
  277	15	42	43	44	45
  278	16	147	43	44	45
  279	16	148	43	44	45
  280	15	43	44	45	46
  281	16	43	44	45	149
  282	16	43	44	45	150
  283	3	44	45	46	47
  284	13	44	45	46	151
  285	13	44	45	46	152
  286	3	149	45	46	47
  287	3	149	45	46	151
  288	3	149	45	46	152
  289	3	150	45	46	47
  290	3	150	45	46	151
  291	3	150	45	46	152
  292	2	45	46	47	48
  293	1	45	46	47	153
  294	1	45	46	47	154
  295	1	151	46	47	48
  296	14	151	46	47	153
  297	14	151	46	47	154
  298	1	152	46	47	48
  299	14	152	46	47	153
  300	14	152	46	47	154
  301	3	46	47	48	49
  302	3	46	47	48	155
  303	3	46	47	48	156
  304	13	153	47	48	49
  305	3	153	47	48	155
  306	3	153	47	48	156
  307	13	154	47	48	49
  308	3	154	47	48	155
  309	3	154	47	48	156
  310	15	47	48	49	50
  311	16	155	48	49	50
  312	16	156	48	49	50
  313	15	48	49	50	51
  314	16	48	49	50	157
  315	16	48	49	50	158
  316	3	49	50	51	52
  317	13	49	50	51	159
  318	13	49	50	51	160
  319	3	157	50	51	52
  320	3	157	50	51	159
  321	3	157	50	51	160
  322	3	158	50	51	52
  323	3	158	50	51	159
  324	3	158	50	51	160
  325	2	50	51	52	53
  326	1	50	51	52	161
  327	1	50	51	52	162
  328	1	159	51	52	53
  329	14	159	51	52	161
  330	14	159	51	52	162
  331	1	160	51	52	53
  332	14	160	51	52	161
  333	14	160	51	52	162
  334	3	51	52	53	54
  335	3	51	52	53	163
  336	3	51	52	53	164
  337	13	161	52	53	54
  338	3	161	52	53	163
  339	3	161	52	53	164
  340	13	162	52	53	54
  341	3	162	52	53	163
  342	3	162	52	53	164
  343	11	52	53	54	55
  344	12	163	53	54	55
  345	12	164	53	54	55
  346	10	53	54	55	56
  347	9	53	54	55	57
  348	7	54	55	57	58
  349	7	54	55	57	165
  350	7	56	55	57	58
  351	8	56	55	57	165
  352	4	55	57	58	59
  353	6	55	57	58	166
  354	6	55	57	58	167
  355	5	165	57	58	59
  356	5	165	57	58	166
  357	5	165	57	58	167
  358	3	57	58	59	60
  359	3	57	58	59	61
  360	3	57	58	59	74
  361	3	166	58	59	60
  362	3	166	58	59	61
  363	3	166	58	59	74
  364	3	167	58	59	60
  365	3	167	58	59	61
  366	3	167	58	59	74
  367	1	58	59	60	168
  368	1	58	59	60	169
  369	1	58	59	60	170
  370	1	61	59	60	168
  371	1	61	59	60	169
  372	1	61	59	60	170
  373	1	74	59	60	168
  374	1	74	59	60	169
  375	1	74	59	60	170
  376	2	58	59	61	62
  377	1	58	59	61	171
  378	1	58	59	61	172
  379	2	60	59	61	62
  380	1	60	59	61	171
  381	1	60	59	61	172
  382	2	74	59	61	62
  383	1	74	59	61	171
  384	1	74	59	61	172
  385	3	59	61	62	63
  386	2	59	61	62	70
  387	3	59	61	62	173
  388	3	171	61	62	63
  389	1	171	61	62	70
  390	3	171	61	62	173
  391	3	172	61	62	63
  392	1	172	61	62	70
  393	3	172	61	62	173
  394	4	61	62	63	64
  395	5	61	62	63	174
  396	4	70	62	63	64
  397	5	70	62	63	174
  398	6	173	62	63	64
  399	5	173	62	63	174
  400	7	62	63	64	65
  401	7	62	63	64	66
  402	8	174	63	64	65
  403	7	174	63	64	66
  404	9	63	64	66	67
  405	10	65	64	66	67
  406	11	64	66	67	68
  407	12	64	66	67	175
  408	12	64	66	67	176
  409	17	66	67	68	69
  410	18	66	67	68	177
  411	18	66	67	68	178
  412	19	175	67	68	69
  413	3	175	67	68	177
  414	3	175	67	68	178
  415	19	176	67	68	69
  416	3	176	67	68	177
  417	3	176	67	68	178
  418	20	67	68	69	179
  419	21	177	68	69	179
  420	21	178	68	69	179
  421	2	61	62	70	71
  422	1	61	62	70	180
  423	1	61	62	70	181
  424	3	63	62	70	71
  425	3	63	62	70	180
  426	3	63	62	70	181
  427	3	173	62	70	71
  428	3	173	62	70	180
  429	3	173	62	70	181
  430	2	62	70	71	72
  431	2	62	70	71	73
  432	2	62	70	71	74
  433	1	180	70	71	72
  434	1	180	70	71	73
  435	1	180	70	71	74
  436	1	181	70	71	72
  437	1	181	70	71	73
  438	1	181	70	71	74
  439	1	70	71	72	182
  440	1	70	71	72	183
  441	1	70	71	72	184
  442	1	73	71	72	182
  443	1	73	71	72	183
  444	1	73	71	72	184
  445	1	74	71	72	182
  446	1	74	71	72	183
  447	1	74	71	72	184
  448	1	70	71	73	185
  449	1	70	71	73	186
  450	1	70	71	73	187
  451	1	72	71	73	185
  452	1	72	71	73	186
  453	1	72	71	73	187
  454	1	74	71	73	185
  455	1	74	71	73	186
  456	1	74	71	73	187
  457	2	70	71	74	59
  458	1	70	71	74	188
  459	1	70	71	74	189
  460	2	72	71	74	59
  461	1	72	71	74	188
  462	1	72	71	74	189
  463	2	73	71	74	59
  464	1	73	71	74	188
  465	1	73	71	74	189
  466	2	4	5	75	76
  467	1	4	5	75	190
  468	1	4	5	75	191
  469	3	6	5	75	76
  470	3	6	5	75	190
  471	3	6	5	75	191
  472	3	91	5	75	76
  473	3	91	5	75	190
  474	3	91	5	75	191
  475	2	5	75	76	77
  476	2	5	75	76	78
  477	2	5	75	76	82
  478	1	190	75	76	77
  479	1	190	75	76	78
  480	1	190	75	76	82
  481	1	191	75	76	77
  482	1	191	75	76	78
  483	1	191	75	76	82
  484	1	75	76	77	192
  485	1	75	76	77	193
  486	1	75	76	77	194
  487	1	78	76	77	192
  488	1	78	76	77	193
  489	1	78	76	77	194
  490	1	82	76	77	192
  491	1	82	76	77	193
  492	1	82	76	77	194
  493	3	75	76	78	79
  494	3	75	76	78	195
  495	3	75	76	78	196
  496	3	77	76	78	79
  497	3	77	76	78	195
  498	3	77	76	78	196
  499	3	82	76	78	79
  500	3	82	76	78	195
  501	3	82	76	78	196
  502	22	76	78	79	80
  503	22	195	78	79	80
  504	22	196	78	79	80
  505	23	78	79	80	81
  506	2	75	76	82	2
  507	1	75	76	82	197
  508	1	75	76	82	198
  509	2	77	76	82	2
  510	1	77	76	82	197
  511	1	77	76	82	198
  512	2	78	76	82	2
  513	1	78	76	82	197
  514	1	78	76	82	198
  515	2	76	82	2	1
  516	2	76	82	2	3
  517	2	76	82	2	4
  518	1	197	82	2	1
  519	1	197	82	2	3
  520	1	197	82	2	4
  521	1	198	82	2	1
  522	1	198	82	2	3
  523	1	198	82	2	4
  524	2	71	74	59	58
  525	2	71	74	59	60
  526	2	71	74	59	61
  527	1	188	74	59	58
  528	1	188	74	59	60
  529	1	188	74	59	61
  530	1	189	74	59	58
  531	1	189	74	59	60
  532	1	189	74	59	61

Impropers

    1	1	6	5	7	92
    2	2	7	6	9	8
    3	2	55	54	57	56
    4	3	57	55	58	165
    5	1	63	62	64	174
    6	2	64	63	66	65
