LAMMPS data file via write_data, version 22 Jul 2025, timestep = 0, units = real

198 atoms
12 atom types
199 bonds
14 bond types
380 angles
24 angle types
532 dihedrals
23 dihedral types
6 impropers
3 improper types

-16.428290676767677 16.428290676767677 xlo xhi
-16.428290676767677 16.428290676767677 ylo yhi
-16.428290676767677 16.428290676767677 zlo zhi

Masses

1 12.011
2 14.007
3 12.011
4 15.999
5 15.999
6 15.999
7 14.007
8 12.011
9 1.008
10 1.008
11 1.008
12 1.008

Pair Coeffs # lj/charmm/coul/long/omp

1 0.1078 3.39771 0.1078 3.39771
2 0.1174 3.26995 0.1174 3.26995
3 0.0988 3.31521 0.0988 3.31521
4 0.1463 3.04812 0.1463 3.04812
5 0.0726 3.1561 0.0726 3.1561
6 0.093 3.24287 0.093 3.24287
7 0.0941 3.38417 0.0941 3.38417
8 0.1596 3.47896 0.1596 3.47896
9 0.0208 2.60018 0.0208 2.60018
10 0.0208 2.422 0.0208 2.422
11 0.01 1.1065 0.01 1.1065
12 0.0047 0.537925 0.0047 0.537925

Bond Coeffs # harmonic/omp

1 232.52 1.538
2 263.77 1.462
3 356.21 1.379
4 652.57 1.218
5 372.94 1.358
6 284.76 1.432
7 293.4 1.423
8 259.91 1.466
9 736.75 1.197
10 794.98 1.172
11 375.92 1.097
12 375.92 1.097
13 527.31 1.013
14 563.51 0.973

Angle Coeffs # harmonic/omp

1 46.816 109.8
2 38.96 107.58
3 64.888 111.51
4 83.161 111.61
5 46.868 109.56
6 61.544 108.88
7 65.252 120.69
8 46.147 117.68
9 48.691 117.55
10 113.811 123.05
11 115.486 109.22
12 114.822 123.25
13 66.906 115.98
14 85.306 107.97
15 62.377 109.78
16 38.802 108.46
17 66.293 112.48
18 84.642 110.19
19 62.54 110.26
20 49.027 107.26
21 84.123 108.8
22 61.133 109.81
23 60.897 151.88
24 106.076 172.73

Dihedral Coeffs # fourier/omp

1 2 0.08 3 0 0.08 3 0
2 3 0.13 3 0 0.29 2 180 0.11 1 0
3 1 0.155556 3 0
4 6 0.1 4 180 0.17 3 0 1.02 1 180 0.65 4 180 0.03 3 180 2.26 1 0
5 1 0 2 0
6 1 0 2 180
7 1 2.5 2 180
8 2 2.5 2 180 2 1 0
9 1 2.7 2 180
10 2 2.7 2 180 1.4 1 180
11 2 0.383 3 0 0.8 1 180
12 1 0.383333 3 0
13 2 0 3 0 0.25 1 0
14 1 0.12 3 0
15 5 0.24 3 0 0.16 2 0 0.91 3 0 1 2 0 0 1 0
16 1 0.337 3 0
17 3 1.01 3 0 0 2 0 0.02 1 180
18 2 0 3 0 0.25 1 0
19 2 0 3 0 0.25 1 0
20 1 0 3 0
21 1 0.113 3 0
22 1 0 3 0
23 1 0 2 180

Improper Coeffs # cvff/omp

1 1.1 -1 2
2 10.5 -1 2
3 1.1 -1 2

Atoms # full

53 1 1 0.09326829739339267 -8.924817225185867 -0.0029921068318928693 -2.949811326141107 0 0 0
56 1 4 -0.2246072883503104 -9.022787527550728 -1.551810108324743 -0.6393530394608044 0 0 0
164 1 10 0.07075135451391448 -8.928915279616895 -0.9838417063083339 -3.443458157616416 0 0 0
16 1 1 -0.0274141380091939 -0.95902915888448 -1.4995563618487238 -2.2676016723919794 0 0 0
55 1 3 0.4066437385015225 -8.079698181699035 -0.8046372728685325 -0.836462774331159 0 0 0
101 1 10 0.05665597944628357 -1.5839080380172719 -0.9578865725170497 -4.275023604399588 0 0 0
103 1 9 0.02909435016994487 -1.0490215243216385 -1.1045206862752734 -1.252251212273493 0 0 0
104 1 9 0.02909435016994487 -1.5276624100225147 -2.4375007065222727 -2.303091028657119 0 0 0
160 1 9 0.02913587251314939 -7.164591911848525 -0.07388687019313622 -5.120243390312598 0 0 0
168 1 9 0.02366929916629904 -6.616233859237253 -3.2989110765207332 -0.7365727320012299 0 0 0
14 1 5 -0.3814486322076339 -2.869691083979111 -0.07804309312118733 -2.887032223529008 0 0 0
15 1 1 0.04663817775707114 -1.5428025526755786 -0.488440273129275 -3.284104926394518 0 0 0
172 1 9 0.0293845102812146 -4.564199314871153 -1.534054079352299 -0.09368804117826235 0 0 0
17 1 1 -0.02741413804058574 0.5346880027057164 -1.7712497977655248 -2.544677341251842 0 0 0
105 1 9 0.02909435016988921 0.6498485747098712 -2.3028446478933673 -3.497950454701439 0 0 0
108 1 10 0.05665597941619162 0.8255360347675555 -3.604434337929301 -1.3942945944760616 0 0 0
18 1 1 0.04663816984984175 1.2041655929512785 -2.574324065723515 -1.4110871523721311 0 0 0
19 1 5 -0.3814493819627182 2.61697326330722 -2.5546939567348184 -1.6609197489612624 0 0 0
20 1 1 0.0466381698498417 3.434639555429287 -3.1185948545018025 -0.6212402002901664 0 0 0
21 1 1 -0.02741413804064414 4.905977940700022 -2.8065625166761246 -0.968187594955058 0 0 0
22 1 1 -0.02741413804064414 5.230935034894024 -1.2944581269994857 -0.8573495834750094 0 0 0
23 1 1 0.0466381698498417 6.523207319117206 -0.9262586690555086 -1.610782034166617 0 0 0
35 1 1 0.0466381698498417 7.977440618016969 -5.561226082840795 -4.020855084016418 0 0 0
36 1 1 -0.02741413804064414 6.592433531253186 -5.043630658592467 -4.46884459506646 0 0 0
37 1 1 -0.02741413804064414 6.546584054971975 -3.5027457061962366 -4.6167318196130935 0 0 0
38 1 1 0.0466381698498417 5.114058465764819 -2.9984503522963255 -4.891491094607537 0 0 0
39 1 5 -0.3814493819627182 5.132295983786002 -1.5611061666914117 -4.866030745879276 0 0 0
40 1 1 0.0466381698498417 3.826877512392308 -0.9680617593256448 -4.772751405985822 0 0 0
107 1 10 0.05665597941619162 0.9877968606881826 -2.097961641647628 -0.44535886837591454 0 0 0
110 1 10 0.05665597941619162 3.2842489989059227 -4.204676287506162 -0.5712996470251593 0 0 0
111 1 9 0.02909435016988916 5.114356988772746 -3.1633050778413803 -1.9824113990746546 0 0 0
112 1 9 0.02909435016988916 5.569031533858883 -3.368853756702932 -0.2985328236788749 0 0 0
114 1 9 0.02909435016988916 4.409635716406422 -0.6955066249662721 -1.27139833719001 0 0 0
115 1 10 0.05665597941619162 6.327055938778289 -0.9261850965595849 -2.690002526752638 0 0 0
116 1 10 0.05665597941619162 7.3006058678017745 -1.6676388765225785 -1.3947121696155587 0 0 0
135 1 9 0.02909435016988916 6.326130140276816 -5.507597230470862 -5.426955040360194 0 0 0
136 1 9 0.02909435016988916 5.839590291883185 -5.368149471870603 -3.738630181864232 0 0 0
137 1 9 0.02909435016988916 6.9200507739808135 -3.0346066135766985 -3.697746110462889 0 0 0
138 1 9 0.02909435016988916 7.212151314353482 -3.1870116174095475 -5.430199771195771 0 0 0
139 1 10 0.05665597941619162 4.4367315051452945 -3.3819426638886125 -4.117194709829624 0 0 0
140 1 10 0.05665597941619162 4.7653308330922375 -3.3583475454497957 -5.867918945654302 0 0 0
141 1 10 0.05665597941619162 3.209274753867532 -1.286448842910225 -5.621765727014071 0 0 0
142 1 10 0.05665597941619162 3.338298021391516 -1.2824735623225263 -3.841453100244857 0 0 0
147 1 10 0.05665597941619162 1.3717194508725419 -0.05093877232824732 -5.646105713009685 0 0 0
134 1 10 0.05665597941619162 7.97653372377562 -6.658932036778374 -4.030535776846545 0 0 0
106 1 9 0.02909435016988921 1.0573621501890311 -0.8117738308486839 -2.6449210746152563 0 0 0
34 1 5 -0.3814493819627182 8.226646198075548 -5.079954535133756 -2.6885617236507326 0 0 0
28 1 1 0.0466381698498417 11.299461679490088 -0.5294573054061502 -0.7430637838539516 0 0 0
29 1 5 -0.3814493819627182 11.408055333920538 -1.6071789423507608 -1.7028381128077437 0 0 0
30 1 1 0.0466381698498417 11.312719288886916 -2.968996206260783 -1.2254450571440763 0 0 0
31 1 1 -0.02741413804064414 9.859084714060753 -3.319121420760383 -0.8225077994542871 0 0 0
32 1 1 -0.02741413804064414 9.614629376570745 -4.847195928576921 -0.7242648898514231 0 0 0
33 1 1 0.0466381698498417 9.46119329867397 -5.529721799977604 -2.104413035771779 0 0 0
120 1 9 0.02909435016988916 9.12813998755596 -0.6365539467852375 -2.6364774851385 0 0 0
122 1 9 0.02909435016988916 9.202036547923008 -0.6805324088790612 -0.13060759059498148 0 0 0
125 1 10 0.05665597941619162 11.990575916167822 -3.129573015167572 -0.37721017275167285 0 0 0
126 1 10 0.05665597941619162 11.629952388955312 -3.637695750817457 -2.034700369309686 0 0 0
127 1 9 0.02909435016988916 9.1585432734849 -2.882001674817139 -1.5433497412610848 0 0 0
129 1 9 0.02909435016988916 10.43789710788211 -5.316382532927184 -0.17072196953956692 0 0 0
130 1 9 0.02909435016988916 8.703181839397795 -5.02874829632339 -0.14007936826100667 0 0 0
131 1 10 0.05665597941619162 9.435551471418895 -6.619152722132555 -1.972538325772137 0 0 0
132 1 10 0.05665597941619162 10.309741704038629 -5.276469977240076 -2.752511190011598 0 0 0
133 1 10 0.05665597941619162 8.75305708492797 -5.202917826680465 -4.710401140697334 0 0 0
161 1 9 0.03022621956258014 -9.37440989757701 1.114565419985258 -4.747773747730879 0 0 0
163 1 10 0.07075135451391448 -9.922450440473854 0.1792189281200633 -2.52868501280987 0 0 0
52 1 1 -0.01636798477393092 -8.593982176638088 1.1046729393867831 -3.976330301702542 0 0 0
162 1 9 0.03022621956258014 -8.629351283447141 2.0812242946085315 -3.4763864183534285 0 0 0
154 1 9 0.02909435016994487 -3.2660181913200708 2.1218849828053084 -7.3672315512907876 0 0 0
51 1 1 -0.02636427822271796 -7.211561064748135 0.9159276748420186 -4.648237995487172 0 0 0
54 1 5 -0.4495627555357394 -7.933415404229314 0.024593137440938672 -1.9056107017218609 0 0 0
159 1 9 0.02913587251314939 -6.431611064596916 0.9429342345427745 -3.879038076630931 0 0 0
165 1 11 0.1666063765487101 -6.2903891117636075 0.004536802068196161 -0.29799283653966047 0 0 0
12 1 1 -0.02636427821821108 -4.383473371521285 1.3032639115394988 -1.5835286766233623 0 0 0
13 1 1 0.04667935279419728 -2.926376105404586 0.8231172351893622 -1.7631874911094068 0 0 0
45 1 1 0.04663816984984175 -0.7034813180670512 1.4965185055820152 -6.188200452889739 0 0 0
46 1 1 -0.02741413804058574 -1.9545017613434943 2.2085712386234486 -5.631320590523214 0 0 0
47 1 1 -0.0274141380091939 -3.24672832066341 1.7378265274483233 -6.3391857360046275 0 0 0
48 1 1 0.04663817775707114 -4.510274459162208 2.1927693383526714 -5.5837178552777 0 0 0
49 1 5 -0.3814486322076339 -5.66153775450876 1.7661435170763624 -6.338739481659802 0 0 0
50 1 1 0.04667935279418892 -6.9408362816486315 2.0042405571069795 -5.717252452535501 0 0 0
97 1 9 0.02913587251315736 -4.585054086272554 2.137260825468312 -2.2670630610180598 0 0 0
98 1 9 0.02913587251315736 -5.067506735440691 0.4908492111628654 -1.8596042360512894 0 0 0
100 1 10 0.05665670390454289 -2.2667914151918827 1.6856090870370526 -1.9251750299745298 0 0 0
102 1 10 0.05665597944628357 -0.8848402937983443 0.3875989183884252 -3.352636147259558 0 0 0
149 1 10 0.05665597941619162 -0.47916361435961197 1.8622767758244305 -7.198703875342581 0 0 0
150 1 10 0.05665597941619162 -0.8928589389377961 0.41625943414516836 -6.239518082584864 0 0 0
151 1 9 0.02909435016988921 -1.8429558895659912 3.2946303845124643 -5.742765648842528 0 0 0
152 1 9 0.02909435016988921 -2.037070088589371 2.0085762006077563 -4.556768358360852 0 0 0
153 1 9 0.02909435016994487 -3.2550258561501217 0.6417722639131812 -6.401026815806695 0 0 0
155 1 10 0.05665597944628357 -4.50818883458713 1.738670208633829 -4.585714822263574 0 0 0
156 1 10 0.05665597944628357 -4.511040783534831 3.2851371193735632 -5.476465898346083 0 0 0
157 1 10 0.05665670390454288 -7.726960630825666 1.956030683165067 -6.481484062247197 0 0 0
158 1 10 0.05665670390454288 -6.968040611797615 3.0033870932925484 -5.262892018345238 0 0 0
11 1 1 -0.01636798360734035 -4.690063967851212 1.7306317683032115 -0.12747730971570434 0 0 0
94 1 10 0.0707513556374369 -4.107820910564685 3.8368729653782703 -0.05317265095755188 0 0 0
96 1 9 0.03022621956689231 -5.743457463669889 2.028766496993939 -0.050530836956945505 0 0 0
99 1 10 0.05665670390454289 -2.606683302261864 0.3070962396243222 -0.8515471421490098 0 0 0
24 1 5 -0.3814493819627182 6.950441866963859 0.3774580060333971 -1.1711036377003041 0 0 0
25 1 1 0.0466381698498417 7.890767478152662 1.0522137921003762 -2.0347994884141265 0 0 0
41 1 1 -0.02741413804064414 3.9900342067724512 0.5685733887546405 -4.775392672558462 0 0 0
42 1 1 -0.02741413804064414 2.6543944307180243 1.3207686938222554 -4.541136406452994 0 0 0
43 1 1 0.0466381698498417 1.5915373893605846 1.0238960587772614 -5.624066884925334 0 0 0
44 1 5 -0.3814493819627182 0.3970636218915002 1.7550964576125434 -5.2982987483460535 0 0 0
117 1 10 0.05665597941619162 7.479572993400266 1.1380387866485295 -3.049213421417794 0 0 0
118 1 10 0.05665597941619162 8.05949529706224 2.0678905302723187 -1.6552658930088178 0 0 0
143 1 9 0.02909435016988916 4.699247979595411 0.8538803193848117 -3.987370577399377 0 0 0
144 1 9 0.02909435016988916 4.429125034854165 0.8868592645175915 -5.729577077716452 0 0 0
145 1 9 0.02909435016988916 2.2560863161613662 1.0546494357330458 -3.5540258770469326 0 0 0
146 1 9 0.02909435016988916 2.852461123490299 2.4000232442918974 -4.520045133074957 0 0 0
148 1 10 0.05665597941619162 1.967891754687348 1.3284188140163469 -6.609444206523349 0 0 0
27 1 1 -0.02741413804064414 9.846726384594357 0.01485813751471671 -0.6785311283634978 0 0 0
124 1 10 0.05665597941619162 11.957065760279239 0.289790213894724 -1.0603918819915215 0 0 0
26 1 1 -0.02741413804064414 9.248226589459922 0.30200112432713244 -2.0809245904610902 0 0 0
119 1 9 0.02909435016988916 9.957941587111304 0.9092901567453799 -2.6568157199456484 0 0 0
121 1 9 0.02909435016988916 9.853093824464581 0.9441300894431826 -0.09501706845037795 0 0 0
57 1 2 -0.320940554447436 -6.999592256094858 -0.6513592584276898 0.0007095275604326777 0 0 0
58 1 1 0.02621561786896811 -6.834386857797539 -1.3319257840469598 1.296224902315696 0 0 0
59 1 1 -0.01256064853337846 -5.938056428018855 -2.6176531737532556 1.2496156214581746 0 0 0
60 1 1 -0.05785724888675247 -6.6041994774321875 -3.6587224446120343 0.30003711432472996 0 0 0
61 1 1 -0.02549950565705704 -4.506289108630116 -2.2722463363665715 0.7152889429883488 0 0 0
62 1 1 0.03323771189742473 -3.5754388008811198 -1.75325110897333 1.8320957290052142 0 0 0
63 1 2 -0.3187174963718927 -2.3092580325953347 -1.2784505380485232 1.26142470998921 0 0 0
64 1 3 0.4069273219729349 -1.460971409433125 -0.40448194630835377 1.898470646044741 0 0 0
66 1 5 -0.4471136713933013 -0.37205675004915556 -0.18047351400273579 1.110476189282406 0 0 0
70 1 1 -0.02744511291384107 -3.3138499020787746 -2.8618538828312063 2.893207446288681 0 0 0
71 1 1 -0.03288949744477357 -4.51830316282441 -3.8344990100932432 3.159920495476832 0 0 0
72 1 1 -0.05981143615543522 -4.593438709283887 -4.137563101818352 4.68503939506901 0 0 0
73 1 1 -0.05981143615543522 -4.28550712586042 -5.195985983760564 2.436509326121074 0 0 0
74 1 1 -0.04084595482211462 -5.8732135093506574 -3.1850574295774843 2.7188161474421624 0 0 0
80 1 8 0.2344571365311164 -2.384125320797622 -1.3536522507881898 6.700393134263827 0 0 0
81 1 4 -0.2113796383838462 -2.008253375308602 -2.4444048803916796 6.496886002095616 0 0 0
166 1 10 0.04981207680180026 -7.8258334003889445 -1.5957266540447654 1.6876039897082509 0 0 0
167 1 10 0.04981207680180026 -6.393734296508479 -0.6101312910273105 1.9958792820922353 0 0 0
169 1 9 0.02366929916629904 -6.069693548690845 -4.614968776758984 0.3058717725725877 0 0 0
170 1 9 0.02366929916629904 -7.641220678658872 -3.8570058489752377 0.5998019653929334 0 0 0
171 1 9 0.0293845102812146 -4.0439972307667125 -3.155136518014965 0.25782817635570277 0 0 0
173 1 10 0.05298890732020456 -4.071901255021171 -0.90599349225318 2.3236379049100035 0 0 0
174 1 11 0.1668741263330167 -2.0223907106180645 -1.619311328597311 0.353406579609836 0 0 0
180 1 9 0.0293074366750559 -3.0252685473214487 -2.355826025424238 3.823074455624338 0 0 0
181 1 9 0.0293074366750559 -2.434178645103931 -3.450316778728505 2.599947623468945 0 0 0
182 1 9 0.02359313424410414 -3.6580880622768643 -4.585809169253129 5.0448261210248075 0 0 0
183 1 9 0.02359313424410414 -5.4100163675423305 -4.83612162273804 4.908906005125915 0 0 0
184 1 9 0.02359313424410414 -4.768455991067217 -3.2215409565384534 5.264159404493691 0 0 0
185 1 9 0.02359313424410414 -5.15281509097052 -5.857899616813986 2.5560743421661942 0 0 0
186 1 9 0.02359313424410414 -3.4125605090614544 -5.714453877072556 2.8537908586470047 0 0 0
187 1 9 0.02359313424410414 -4.100097129812944 -5.0724365113932155 1.3649507235631557 0 0 0
188 1 9 0.02782910018978014 -6.698228828845868 -3.890700126046982 2.884484893924856 0 0 0
189 1 9 0.02782910018978014 -6.064368393456689 -2.359563333159433 3.417844524424258 0 0 0
79 1 7 -0.2053708579395956 -2.790556575457339 -0.22941307804786923 6.757190192058868 0 0 0
109 1 10 0.05665597941619162 3.182622299021241 -2.6798515431353316 0.35327030486845923 0 0 0
113 1 9 0.02909435016988916 5.323751226616476 -1.0227597528763581 0.20200296217161207 0 0 0
123 1 10 0.05665597941619162 11.62931235340798 -0.8546484581833883 0.2521017948587654 0 0 0
128 1 9 0.02909435016988916 9.643921949182884 -2.87318412884529 0.15575530789701023 0 0 0
4 1 1 -0.0274450801660705 -1.0048469016753538 3.3111065027138986 4.830604108858534 0 0 0
5 1 1 0.03323970696365346 -2.4388750420903245 3.9103872182798893 4.965788484323382 0 0 0
6 1 2 -0.3187187670904139 -3.2984814963901288 3.404588122906917 3.8845691841036682 0 0 0
7 1 3 0.4068426977732932 -3.156054647628688 3.733162394072164 2.557825053438823 0 0 0
8 1 4 -0.2245983116397505 -2.3488255776568203 4.5308430969418 2.111709660996774 0 0 0
9 1 5 -0.44955722076016 -3.9482463804241057 2.910729253792302 1.8217149797470196 0 0 0
10 1 1 0.09326843585115407 -3.801384889013574 2.881243745366784 0.39217872714360147 0 0 0
65 1 4 -0.2245966571341527 -1.6597529788287486 0.08580337302776796 2.9959320029719763 0 0 0
75 1 1 -0.02538400265287667 -3.0887195383240083 3.6091965201941165 6.350125496614462 0 0 0
76 1 1 -0.009620215442660382 -2.6219883724309225 2.277765671894217 7.016183998682099 0 0 0
78 1 1 0.05701397945558052 -3.103355768125161 1.0674386256968202 6.134859166425122 0 0 0
82 1 1 -0.04073040314652244 -1.0562828558146207 2.2916096298648605 7.204796343123141 0 0 0
89 1 9 0.02930743679618078 -0.4237125262002656 3.9381727826014523 4.142334188648322 0 0 0
90 1 9 0.02930743679618078 -1.0665351393263567 2.331137830074253 4.344155653485335 0 0 0
91 1 10 0.05298892332836235 -2.3726659440859157 5.001660178250142 4.862753502405481 0 0 0
92 1 11 0.1668741148317106 -3.9787349107421197 2.687271642509569 4.0973614636485465 0 0 0
93 1 10 0.0707513556374369 -2.7509178056055945 2.6925069999834643 0.13775592367612072 0 0 0
95 1 9 0.03022621956689231 -4.560550047684055 0.86102938821558 0.5286217559064984 0 0 0
177 1 10 0.05999075500253898 -0.8190354667644912 2.3161705472363328 1.9477772854683681 0 0 0
190 1 9 0.0293864721228842 -4.182498614017496 3.616484938318618 6.25065855640384 0 0 0
191 1 9 0.0293864721228842 -2.861681964035517 4.440053039476588 7.028777639960045 0 0 0
195 1 10 0.05299275046117684 -2.6400032853599535 1.1035365903781373 5.145100125685571 0 0 0
196 1 10 0.05299275046117684 -4.188383710688158 1.1382815781368154 5.987243044631404 0 0 0
197 1 9 0.02783105007743622 -0.6900351671179326 1.257637873815082 7.21051199843944 0 0 0
2 1 1 -0.032887501617238 -0.2281234828079684 3.1369648296340302 6.1664207728603 0 0 0
87 1 9 0.02359313430291008 -0.7520328917946643 5.123662499608815 7.010666084891059 0 0 0
178 1 10 0.05999075500253898 -0.17145568871730787 2.354694919756934 0.29660855468322667 0 0 0
198 1 9 0.02783105007743622 -0.8163443937399347 2.6636316688972115 8.209633374741525 0 0 0
175 1 10 0.07323470712452268 0.9251249221229337 0.5919743826322799 2.570960091446231 0 0 0
179 1 12 0.2102134954815084 0.6683097190265891 4.037105378266608 1.6768240608553926 0 0 0
1 1 1 -0.05981142002302332 1.1080253523026469 2.398894518408068 5.863450777236134 0 0 0
3 1 1 -0.05981142002302332 0.1353455080865979 4.534853696391753 6.755793014488276 0 0 0
67 1 1 0.116243556457309 0.6386769148390209 0.7648265047730217 1.5250633962588918 0 0 0
68 1 1 0.07742392911661945 0.09179177469434015 2.1981684969273787 1.3502941644411182 0 0 0
69 1 6 -0.3928311477620106 1.0688039775977882 3.1529536465211176 1.7600041231280812 0 0 0
83 1 9 0.02359313430291008 0.9230588961617076 1.4090543445595103 5.425790335602256 0 0 0
84 1 9 0.02359313430291008 1.721320779245075 2.9678034877420663 5.1524570790690465 0 0 0
85 1 9 0.02359313430291008 1.6964441654365712 2.257291383741529 6.779233730474122 0 0 0
86 1 9 0.02359313430291008 0.7239480840029622 5.120186156112439 6.037580137015807 0 0 0
88 1 9 0.02359313430291008 0.7363177085494026 4.431231429194822 7.6684457950423575 0 0 0
176 1 10 0.07323470712452268 1.5327203231807383 0.645947860992663 0.899431414972466 0 0 0
77 1 1 -0.05774154989098976 -3.3015408922229983 2.178609633969415 8.416601594831432 0 0 0
192 1 9 0.02367123610767339 -3.0708299615776813 3.059161579532807 9.03009145370538 0 0 0
193 1 9 0.02367123610767339 -4.393223369939577 2.1153169810534895 8.32118809959954 0 0 0
194 1 9 0.02367123610767339 -2.9581664554734286 1.2950626077049479 8.96976313128135 0 0 0

Velocities

53 0 0 0
56 0 0 0
164 0 0 0
16 0 0 0
55 0 0 0
101 0 0 0
103 0 0 0
104 0 0 0
160 0 0 0
168 0 0 0
14 0 0 0
15 0 0 0
172 0 0 0
17 0 0 0
105 0 0 0
108 0 0 0
18 0 0 0
19 0 0 0
20 0 0 0
21 0 0 0
22 0 0 0
23 0 0 0
35 0 0 0
36 0 0 0
37 0 0 0
38 0 0 0
39 0 0 0
40 0 0 0
107 0 0 0
110 0 0 0
111 0 0 0
112 0 0 0
114 0 0 0
115 0 0 0
116 0 0 0
135 0 0 0
136 0 0 0
137 0 0 0
138 0 0 0
139 0 0 0
140 0 0 0
141 0 0 0
142 0 0 0
147 0 0 0
134 0 0 0
106 0 0 0
34 0 0 0
28 0 0 0
29 0 0 0
30 0 0 0
31 0 0 0
32 0 0 0
33 0 0 0
120 0 0 0
122 0 0 0
125 0 0 0
126 0 0 0
127 0 0 0
129 0 0 0
130 0 0 0
131 0 0 0
132 0 0 0
133 0 0 0
161 0 0 0
163 0 0 0
52 0 0 0
162 0 0 0
154 0 0 0
51 0 0 0
54 0 0 0
159 0 0 0
165 0 0 0
12 0 0 0
13 0 0 0
45 0 0 0
46 0 0 0
47 0 0 0
48 0 0 0
49 0 0 0
50 0 0 0
97 0 0 0
98 0 0 0
100 0 0 0
102 0 0 0
149 0 0 0
150 0 0 0
151 0 0 0
152 0 0 0
153 0 0 0
155 0 0 0
156 0 0 0
157 0 0 0
158 0 0 0
11 0 0 0
94 0 0 0
96 0 0 0
99 0 0 0
24 0 0 0
25 0 0 0
41 0 0 0
42 0 0 0
43 0 0 0
44 0 0 0
117 0 0 0
118 0 0 0
143 0 0 0
144 0 0 0
145 0 0 0
146 0 0 0
148 0 0 0
27 0 0 0
124 0 0 0
26 0 0 0
119 0 0 0
121 0 0 0
57 0 0 0
58 0 0 0
59 0 0 0
60 0 0 0
61 0 0 0
62 0 0 0
63 0 0 0
64 0 0 0
66 0 0 0
70 0 0 0
71 0 0 0
72 0 0 0
73 0 0 0
74 0 0 0
80 0 0 0
81 0 0 0
166 0 0 0
167 0 0 0
169 0 0 0
170 0 0 0
171 0 0 0
173 0 0 0
174 0 0 0
180 0 0 0
181 0 0 0
182 0 0 0
183 0 0 0
184 0 0 0
185 0 0 0
186 0 0 0
187 0 0 0
188 0 0 0
189 0 0 0
79 0 0 0
109 0 0 0
113 0 0 0
123 0 0 0
128 0 0 0
4 0 0 0
5 0 0 0
6 0 0 0
7 0 0 0
8 0 0 0
9 0 0 0
10 0 0 0
65 0 0 0
75 0 0 0
76 0 0 0
78 0 0 0
82 0 0 0
89 0 0 0
90 0 0 0
91 0 0 0
92 0 0 0
93 0 0 0
95 0 0 0
177 0 0 0
190 0 0 0
191 0 0 0
195 0 0 0
196 0 0 0
197 0 0 0
2 0 0 0
87 0 0 0
178 0 0 0
198 0 0 0
175 0 0 0
179 0 0 0
1 0 0 0
3 0 0 0
67 0 0 0
68 0 0 0
69 0 0 0
83 0 0 0
84 0 0 0
85 0 0 0
86 0 0 0
88 0 0 0
176 0 0 0
77 0 0 0
192 0 0 0
193 0 0 0
194 0 0 0

Bonds

1 6 53 54
2 12 53 163
3 12 53 164
4 1 16 17
5 11 16 103
6 11 16 104
7 4 55 56
8 3 55 57
9 6 14 15
10 1 15 16
11 12 15 101
12 12 15 102
13 1 17 18
14 11 17 105
15 11 17 106
16 6 18 19
17 12 18 107
18 12 18 108
19 6 19 20
20 1 20 21
21 12 20 109
22 12 20 110
23 1 21 22
24 11 21 111
25 11 21 112
26 1 22 23
27 11 22 113
28 11 22 114
29 6 23 24
30 12 23 115
31 12 23 116
32 1 35 36
33 12 35 133
34 12 35 134
35 1 36 37
36 11 36 135
37 11 36 136
38 1 37 38
39 11 37 137
40 11 37 138
41 6 38 39
42 12 38 139
43 12 38 140
44 6 39 40
45 1 40 41
46 12 40 141
47 12 40 142
48 6 34 35
49 6 28 29
50 12 28 123
51 12 28 124
52 6 29 30
53 1 30 31
54 12 30 125
55 12 30 126
56 1 31 32
57 11 31 127
58 11 31 128
59 1 32 33
60 11 32 129
61 11 32 130
62 6 33 34
63 12 33 131
64 12 33 132
65 1 52 53
66 11 52 161
67 11 52 162
68 1 51 52
69 11 51 159
70 11 51 160
71 5 54 55
72 1 12 13
73 11 12 97
74 11 12 98
75 6 13 14
76 12 13 99
77 12 13 100
78 1 45 46
79 12 45 149
80 12 45 150
81 1 46 47
82 11 46 151
83 11 46 152
84 1 47 48
85 11 47 153
86 11 47 154
87 6 48 49
88 12 48 155
89 12 48 156
90 6 49 50
91 1 50 51
92 12 50 157
93 12 50 158
94 1 11 12
95 11 11 95
96 11 11 96
97 6 24 25
98 1 25 26
99 12 25 117
100 12 25 118
101 1 41 42
102 11 41 143
103 11 41 144
104 1 42 43
105 11 42 145
106 11 42 146
107 6 43 44
108 12 43 147
109 12 43 148
110 6 44 45
111 1 27 28
112 11 27 121
113 11 27 122
114 1 26 27
115 11 26 119
116 11 26 120
117 2 57 58
118 13 57 165
119 1 58 59
120 12 58 166
121 12 58 167
122 1 59 60
123 1 59 61
124 11 60 168
125 11 60 169
126 11 60 170
127 1 61 62
128 11 61 171
129 11 61 172
130 2 62 63
131 1 62 70
132 12 62 173
133 3 63 64
134 13 63 174
135 4 64 65
136 5 64 66
137 6 66 67
138 1 70 71
139 11 70 180
140 11 70 181
141 1 71 72
142 1 71 73
143 1 71 74
144 11 72 182
145 11 72 183
146 11 72 184
147 11 73 185
148 11 73 186
149 11 73 187
150 1 74 59
151 11 74 188
152 11 74 189
153 10 80 81
154 9 79 80
155 1 4 5
156 11 4 89
157 11 4 90
158 2 5 6
159 1 5 75
160 12 5 91
161 3 6 7
162 13 6 92
163 4 7 8
164 5 7 9
165 6 9 10
166 1 10 11
167 12 10 93
168 12 10 94
169 1 75 76
170 11 75 190
171 11 75 191
172 1 76 77
173 1 76 78
174 1 76 82
175 8 78 79
176 12 78 195
177 12 78 196
178 1 82 2
179 11 82 197
180 11 82 198
181 1 2 3
182 1 2 4
183 1 1 2
184 11 1 83
185 11 1 84
186 11 1 85
187 11 3 86
188 11 3 87
189 11 3 88
190 1 67 68
191 12 67 175
192 12 67 176
193 7 68 69
194 12 68 177
195 12 68 178
196 14 69 179
197 11 77 192
198 11 77 193
199 11 77 194

Angles

1 14 52 53 54
2 5 52 53 163
3 5 52 53 164
4 15 54 53 163
5 15 54 53 164
6 16 163 53 164
7 3 15 16 17
8 1 15 16 103
9 1 15 16 104
10 1 17 16 103
11 1 17 16 104
12 2 103 16 104
13 12 54 55 56
14 11 54 55 57
15 10 56 55 57
16 17 13 14 15
17 14 14 15 16
18 15 14 15 101
19 15 14 15 102
20 5 16 15 101
21 5 16 15 102
22 16 101 15 102
23 3 16 17 18
24 1 16 17 105
25 1 16 17 106
26 1 18 17 105
27 1 18 17 106
28 2 105 17 106
29 14 17 18 19
30 5 17 18 107
31 5 17 18 108
32 15 19 18 107
33 15 19 18 108
34 16 107 18 108
35 17 18 19 20
36 14 19 20 21
37 15 19 20 109
38 15 19 20 110
39 5 21 20 109
40 5 21 20 110
41 16 109 20 110
42 3 20 21 22
43 1 20 21 111
44 1 20 21 112
45 1 22 21 111
46 1 22 21 112
47 2 111 21 112
48 3 21 22 23
49 1 21 22 113
50 1 21 22 114
51 1 23 22 113
52 1 23 22 114
53 2 113 22 114
54 14 22 23 24
55 5 22 23 115
56 5 22 23 116
57 15 24 23 115
58 15 24 23 116
59 16 115 23 116
60 14 34 35 36
61 15 34 35 133
62 15 34 35 134
63 5 36 35 133
64 5 36 35 134
65 16 133 35 134
66 3 35 36 37
67 1 35 36 135
68 1 35 36 136
69 1 37 36 135
70 1 37 36 136
71 2 135 36 136
72 3 36 37 38
73 1 36 37 137
74 1 36 37 138
75 1 38 37 137
76 1 38 37 138
77 2 137 37 138
78 14 37 38 39
79 5 37 38 139
80 5 37 38 140
81 15 39 38 139
82 15 39 38 140
83 16 139 38 140
84 17 38 39 40
85 14 39 40 41
86 15 39 40 141
87 15 39 40 142
88 5 41 40 141
89 5 41 40 142
90 16 141 40 142
91 17 33 34 35
92 14 27 28 29
93 5 27 28 123
94 5 27 28 124
95 15 29 28 123
96 15 29 28 124
97 16 123 28 124
98 17 28 29 30
99 14 29 30 31
100 15 29 30 125
101 15 29 30 126
102 5 31 30 125
103 5 31 30 126
104 16 125 30 126
105 3 30 31 32
106 1 30 31 127
107 1 30 31 128
108 1 32 31 127
109 1 32 31 128
110 2 127 31 128
111 3 31 32 33
112 1 31 32 129
113 1 31 32 130
114 1 33 32 129
115 1 33 32 130
116 2 129 32 130
117 14 32 33 34
118 5 32 33 131
119 5 32 33 132
120 15 34 33 131
121 15 34 33 132
122 16 131 33 132
123 3 51 52 53
124 1 51 52 161
125 1 51 52 162
126 1 53 52 161
127 1 53 52 162
128 2 161 52 162
129 3 50 51 52
130 1 50 51 159
131 1 50 51 160
132 1 52 51 159
133 1 52 51 160
134 2 159 51 160
135 13 53 54 55
136 3 11 12 13
137 1 11 12 97
138 1 11 12 98
139 1 13 12 97
140 1 13 12 98
141 2 97 12 98
142 14 12 13 14
143 5 12 13 99
144 5 12 13 100
145 15 14 13 99
146 15 14 13 100
147 16 99 13 100
148 14 44 45 46
149 15 44 45 149
150 15 44 45 150
151 5 46 45 149
152 5 46 45 150
153 16 149 45 150
154 3 45 46 47
155 1 45 46 151
156 1 45 46 152
157 1 47 46 151
158 1 47 46 152
159 2 151 46 152
160 3 46 47 48
161 1 46 47 153
162 1 46 47 154
163 1 48 47 153
164 1 48 47 154
165 2 153 47 154
166 14 47 48 49
167 5 47 48 155
168 5 47 48 156
169 15 49 48 155
170 15 49 48 156
171 16 155 48 156
172 17 48 49 50
173 14 49 50 51
174 15 49 50 157
175 15 49 50 158
176 5 51 50 157
177 5 51 50 158
178 16 157 50 158
179 3 10 11 12
180 1 10 11 95
181 1 10 11 96
182 1 12 11 95
183 1 12 11 96
184 2 95 11 96
185 17 23 24 25
186 14 24 25 26
187 15 24 25 117
188 15 24 25 118
189 5 26 25 117
190 5 26 25 118
191 16 117 25 118
192 3 40 41 42
193 1 40 41 143
194 1 40 41 144
195 1 42 41 143
196 1 42 41 144
197 2 143 41 144
198 3 41 42 43
199 1 41 42 145
200 1 41 42 146
201 1 43 42 145
202 1 43 42 146
203 2 145 42 146
204 14 42 43 44
205 5 42 43 147
206 5 42 43 148
207 15 44 43 147
208 15 44 43 148
209 16 147 43 148
210 17 43 44 45
211 3 26 27 28
212 1 26 27 121
213 1 26 27 122
214 1 28 27 121
215 1 28 27 122
216 2 121 27 122
217 3 25 26 27
218 1 25 26 119
219 1 25 26 120
220 1 27 26 119
221 1 27 26 120
222 2 119 26 120
223 7 55 57 58
224 9 55 57 165
225 8 58 57 165
226 4 57 58 59
227 6 57 58 166
228 6 57 58 167
229 5 59 58 166
230 5 59 58 167
231 16 166 58 167
232 3 58 59 60
233 3 58 59 61
234 3 58 59 74
235 3 60 59 61
236 3 60 59 74
237 3 61 59 74
238 1 59 60 168
239 1 59 60 169
240 1 59 60 170
241 2 168 60 169
242 2 168 60 170
243 2 169 60 170
244 3 59 61 62
245 1 59 61 171
246 1 59 61 172
247 1 62 61 171
248 1 62 61 172
249 2 171 61 172
250 4 61 62 63
251 3 61 62 70
252 5 61 62 173
253 4 63 62 70
254 6 63 62 173
255 5 70 62 173
256 7 62 63 64
257 8 62 63 174
258 9 64 63 174
259 10 63 64 65
260 11 63 64 66
261 12 65 64 66
262 13 64 66 67
263 3 62 70 71
264 1 62 70 180
265 1 62 70 181
266 1 71 70 180
267 1 71 70 181
268 2 180 70 181
269 3 70 71 72
270 3 70 71 73
271 3 70 71 74
272 3 72 71 73
273 3 72 71 74
274 3 73 71 74
275 1 71 72 182
276 1 71 72 183
277 1 71 72 184
278 2 182 72 183
279 2 182 72 184
280 2 183 72 184
281 1 71 73 185
282 1 71 73 186
283 1 71 73 187
284 2 185 73 186
285 2 185 73 187
286 2 186 73 187
287 3 71 74 59
288 1 71 74 188
289 1 71 74 189
290 1 59 74 188
291 1 59 74 189
292 2 188 74 189
293 24 79 80 81
294 23 78 79 80
295 3 2 4 5
296 1 2 4 89
297 1 2 4 90
298 1 5 4 89
299 1 5 4 90
300 2 89 4 90
301 4 4 5 6
302 3 4 5 75
303 5 4 5 91
304 4 6 5 75
305 6 6 5 91
306 5 75 5 91
307 7 5 6 7
308 8 5 6 92
309 9 7 6 92
310 10 6 7 8
311 11 6 7 9
312 12 8 7 9
313 13 7 9 10
314 14 9 10 11
315 15 9 10 93
316 15 9 10 94
317 5 11 10 93
318 5 11 10 94
319 16 93 10 94
320 3 5 75 76
321 1 5 75 190
322 1 5 75 191
323 1 76 75 190
324 1 76 75 191
325 2 190 75 191
326 3 75 76 77
327 3 75 76 78
328 3 75 76 82
329 3 77 76 78
330 3 77 76 82
331 3 78 76 82
332 21 76 78 79
333 5 76 78 195
334 5 76 78 196
335 22 79 78 195
336 22 79 78 196
337 16 195 78 196
338 3 76 82 2
339 1 76 82 197
340 1 76 82 198
341 1 2 82 197
342 1 2 82 198
343 2 197 82 198
344 3 1 2 3
345 3 1 2 4
346 3 1 2 82
347 3 3 2 4
348 3 3 2 82
349 3 4 2 82
350 1 2 1 83
351 1 2 1 84
352 1 2 1 85
353 2 83 1 84
354 2 83 1 85
355 2 84 1 85
356 1 2 3 86
357 1 2 3 87
358 1 2 3 88
359 2 86 3 87
360 2 86 3 88
361 2 87 3 88
362 14 66 67 68
363 15 66 67 175
364 15 66 67 176
365 5 68 67 175
366 5 68 67 176
367 16 175 67 176
368 18 67 68 69
369 5 67 68 177
370 5 67 68 178
371 19 69 68 177
372 19 69 68 178
373 16 177 68 178
374 20 68 69 179
375 1 76 77 192
376 1 76 77 193
377 1 76 77 194
378 2 192 77 193
379 2 192 77 194
380 2 193 77 194

Dihedrals

1 11 52 53 54 55
2 12 163 53 54 55
3 12 164 53 54 55
4 2 15 16 17 18
5 1 15 16 17 105
6 1 15 16 17 106
7 1 103 16 17 18
8 14 103 16 17 105
9 14 103 16 17 106
10 1 104 16 17 18
11 14 104 16 17 105
12 14 104 16 17 106
13 7 54 55 57 58
14 7 54 55 57 165
15 7 56 55 57 58
16 8 56 55 57 165
17 15 13 14 15 16
18 16 13 14 15 101
19 16 13 14 15 102
20 3 14 15 16 17
21 13 14 15 16 103
22 13 14 15 16 104
23 3 101 15 16 17
24 3 101 15 16 103
25 3 101 15 16 104
26 3 102 15 16 17
27 3 102 15 16 103
28 3 102 15 16 104
29 3 16 17 18 19
30 3 16 17 18 107
31 3 16 17 18 108
32 13 105 17 18 19
33 3 105 17 18 107
34 3 105 17 18 108
35 13 106 17 18 19
36 3 106 17 18 107
37 3 106 17 18 108
38 15 17 18 19 20
39 16 107 18 19 20
40 16 108 18 19 20
41 15 18 19 20 21
42 16 18 19 20 109
43 16 18 19 20 110
44 3 19 20 21 22
45 13 19 20 21 111
46 13 19 20 21 112
47 3 109 20 21 22
48 3 109 20 21 111
49 3 109 20 21 112
50 3 110 20 21 22
51 3 110 20 21 111
52 3 110 20 21 112
53 2 20 21 22 23
54 1 20 21 22 113
55 1 20 21 22 114
56 1 111 21 22 23
57 14 111 21 22 113
58 14 111 21 22 114
59 1 112 21 22 23
60 14 112 21 22 113
61 14 112 21 22 114
62 3 21 22 23 24
63 3 21 22 23 115
64 3 21 22 23 116
65 13 113 22 23 24
66 3 113 22 23 115
67 3 113 22 23 116
68 13 114 22 23 24
69 3 114 22 23 115
70 3 114 22 23 116
71 15 22 23 24 25
72 16 115 23 24 25
73 16 116 23 24 25
74 3 34 35 36 37
75 13 34 35 36 135
76 13 34 35 36 136
77 3 133 35 36 37
78 3 133 35 36 135
79 3 133 35 36 136
80 3 134 35 36 37
81 3 134 35 36 135
82 3 134 35 36 136
83 2 35 36 37 38
84 1 35 36 37 137
85 1 35 36 37 138
86 1 135 36 37 38
87 14 135 36 37 137
88 14 135 36 37 138
89 1 136 36 37 38
90 14 136 36 37 137
91 14 136 36 37 138
92 3 36 37 38 39
93 3 36 37 38 139
94 3 36 37 38 140
95 13 137 37 38 39
96 3 137 37 38 139
97 3 137 37 38 140
98 13 138 37 38 39
99 3 138 37 38 139
100 3 138 37 38 140
101 15 37 38 39 40
102 16 139 38 39 40
103 16 140 38 39 40
104 15 38 39 40 41
105 16 38 39 40 141
106 16 38 39 40 142
107 3 39 40 41 42
108 13 39 40 41 143
109 13 39 40 41 144
110 3 141 40 41 42
111 3 141 40 41 143
112 3 141 40 41 144
113 3 142 40 41 42
114 3 142 40 41 143
115 3 142 40 41 144
116 15 33 34 35 36
117 16 33 34 35 133
118 16 33 34 35 134
119 15 27 28 29 30
120 16 123 28 29 30
121 16 124 28 29 30
122 15 28 29 30 31
123 16 28 29 30 125
124 16 28 29 30 126
125 3 29 30 31 32
126 13 29 30 31 127
127 13 29 30 31 128
128 3 125 30 31 32
129 3 125 30 31 127
130 3 125 30 31 128
131 3 126 30 31 32
132 3 126 30 31 127
133 3 126 30 31 128
134 2 30 31 32 33
135 1 30 31 32 129
136 1 30 31 32 130
137 1 127 31 32 33
138 14 127 31 32 129
139 14 127 31 32 130
140 1 128 31 32 33
141 14 128 31 32 129
142 14 128 31 32 130
143 3 31 32 33 34
144 3 31 32 33 131
145 3 31 32 33 132
146 13 129 32 33 34
147 3 129 32 33 131
148 3 129 32 33 132
149 13 130 32 33 34
150 3 130 32 33 131
151 3 130 32 33 132
152 15 32 33 34 35
153 16 131 33 34 35
154 16 132 33 34 35
155 3 51 52 53 54
156 3 51 52 53 163
157 3 51 52 53 164
158 13 161 52 53 54
159 3 161 52 53 163
160 3 161 52 53 164
161 13 162 52 53 54
162 3 162 52 53 163
163 3 162 52 53 164
164 2 50 51 52 53
165 1 50 51 52 161
166 1 50 51 52 162
167 1 159 51 52 53
168 14 159 51 52 161
169 14 159 51 52 162
170 1 160 51 52 53
171 14 160 51 52 161
172 14 160 51 52 162
173 10 53 54 55 56
174 9 53 54 55 57
175 3 11 12 13 14
176 3 11 12 13 99
177 3 11 12 13 100
178 13 97 12 13 14
179 3 97 12 13 99
180 3 97 12 13 100
181 13 98 12 13 14
182 3 98 12 13 99
183 3 98 12 13 100
184 15 12 13 14 15
185 16 99 13 14 15
186 16 100 13 14 15
187 3 44 45 46 47
188 13 44 45 46 151
189 13 44 45 46 152
190 3 149 45 46 47
191 3 149 45 46 151
192 3 149 45 46 152
193 3 150 45 46 47
194 3 150 45 46 151
195 3 150 45 46 152
196 2 45 46 47 48
197 1 45 46 47 153
198 1 45 46 47 154
199 1 151 46 47 48
200 14 151 46 47 153
201 14 151 46 47 154
202 1 152 46 47 48
203 14 152 46 47 153
204 14 152 46 47 154
205 3 46 47 48 49
206 3 46 47 48 155
207 3 46 47 48 156
208 13 153 47 48 49
209 3 153 47 48 155
210 3 153 47 48 156
211 13 154 47 48 49
212 3 154 47 48 155
213 3 154 47 48 156
214 15 47 48 49 50
215 16 155 48 49 50
216 16 156 48 49 50
217 15 48 49 50 51
218 16 48 49 50 157
219 16 48 49 50 158
220 3 49 50 51 52
221 13 49 50 51 159
222 13 49 50 51 160
223 3 157 50 51 52
224 3 157 50 51 159
225 3 157 50 51 160
226 3 158 50 51 52
227 3 158 50 51 159
228 3 158 50 51 160
229 2 10 11 12 13
230 1 10 11 12 97
231 1 10 11 12 98
232 1 95 11 12 13
233 14 95 11 12 97
234 14 95 11 12 98
235 1 96 11 12 13
236 14 96 11 12 97
237 14 96 11 12 98
238 15 23 24 25 26
239 16 23 24 25 117
240 16 23 24 25 118
241 3 24 25 26 27
242 13 24 25 26 119
243 13 24 25 26 120
244 3 117 25 26 27
245 3 117 25 26 119
246 3 117 25 26 120
247 3 118 25 26 27
248 3 118 25 26 119
249 3 118 25 26 120
250 2 40 41 42 43
251 1 40 41 42 145
252 1 40 41 42 146
253 1 143 41 42 43
254 14 143 41 42 145
255 14 143 41 42 146
256 1 144 41 42 43
257 14 144 41 42 145
258 14 144 41 42 146
259 3 41 42 43 44
260 3 41 42 43 147
261 3 41 42 43 148
262 13 145 42 43 44
263 3 145 42 43 147
264 3 145 42 43 148
265 13 146 42 43 44
266 3 146 42 43 147
267 3 146 42 43 148
268 15 42 43 44 45
269 16 147 43 44 45
270 16 148 43 44 45
271 15 43 44 45 46
272 16 43 44 45 149
273 16 43 44 45 150
274 3 26 27 28 29
275 3 26 27 28 123
276 3 26 27 28 124
277 13 121 27 28 29
278 3 121 27 28 123
279 3 121 27 28 124
280 13 122 27 28 29
281 3 122 27 28 123
282 3 122 27 28 124
283 2 25 26 27 28
284 1 25 26 27 121
285 1 25 26 27 122
286 1 119 26 27 28
287 14 119 26 27 121
288 14 119 26 27 122
289 1 120 26 27 28
290 14 120 26 27 121
291 14 120 26 27 122
292 4 55 57 58 59
293 6 55 57 58 166
294 6 55 57 58 167
295 5 165 57 58 59
296 5 165 57 58 166
297 5 165 57 58 167
298 3 57 58 59 60
299 3 57 58 59 61
300 3 57 58 59 74
301 3 166 58 59 60
302 3 166 58 59 61
303 3 166 58 59 74
304 3 167 58 59 60
305 3 167 58 59 61
306 3 167 58 59 74
307 1 58 59 60 168
308 1 58 59 60 169
309 1 58 59 60 170
310 1 61 59 60 168
311 1 61 59 60 169
312 1 61 59 60 170
313 1 74 59 60 168
314 1 74 59 60 169
315 1 74 59 60 170
316 2 58 59 61 62
317 1 58 59 61 171
318 1 58 59 61 172
319 2 60 59 61 62
320 1 60 59 61 171
321 1 60 59 61 172
322 2 74 59 61 62
323 1 74 59 61 171
324 1 74 59 61 172
325 3 59 61 62 63
326 2 59 61 62 70
327 3 59 61 62 173
328 3 171 61 62 63
329 1 171 61 62 70
330 3 171 61 62 173
331 3 172 61 62 63
332 1 172 61 62 70
333 3 172 61 62 173
334 4 61 62 63 64
335 5 61 62 63 174
336 4 70 62 63 64
337 5 70 62 63 174
338 6 173 62 63 64
339 5 173 62 63 174
340 2 61 62 70 71
341 1 61 62 70 180
342 1 61 62 70 181
343 3 63 62 70 71
344 3 63 62 70 180
345 3 63 62 70 181
346 3 173 62 70 71
347 3 173 62 70 180
348 3 173 62 70 181
349 7 62 63 64 65
350 7 62 63 64 66
351 8 174 63 64 65
352 7 174 63 64 66
353 9 63 64 66 67
354 10 65 64 66 67
355 11 64 66 67 68
356 12 64 66 67 175
357 12 64 66 67 176
358 2 62 70 71 72
359 2 62 70 71 73
360 2 62 70 71 74
361 1 180 70 71 72
362 1 180 70 71 73
363 1 180 70 71 74
364 1 181 70 71 72
365 1 181 70 71 73
366 1 181 70 71 74
367 1 70 71 72 182
368 1 70 71 72 183
369 1 70 71 72 184
370 1 73 71 72 182
371 1 73 71 72 183
372 1 73 71 72 184
373 1 74 71 72 182
374 1 74 71 72 183
375 1 74 71 72 184
376 1 70 71 73 185
377 1 70 71 73 186
378 1 70 71 73 187
379 1 72 71 73 185
380 1 72 71 73 186
381 1 72 71 73 187
382 1 74 71 73 185
383 1 74 71 73 186
384 1 74 71 73 187
385 2 70 71 74 59
386 1 70 71 74 188
387 1 70 71 74 189
388 2 72 71 74 59
389 1 72 71 74 188
390 1 72 71 74 189
391 2 73 71 74 59
392 1 73 71 74 188
393 1 73 71 74 189
394 2 71 74 59 58
395 2 71 74 59 60
396 2 71 74 59 61
397 1 188 74 59 58
398 1 188 74 59 60
399 1 188 74 59 61
400 1 189 74 59 58
401 1 189 74 59 60
402 1 189 74 59 61
403 23 78 79 80 81
404 3 2 4 5 6
405 2 2 4 5 75
406 3 2 4 5 91
407 3 89 4 5 6
408 1 89 4 5 75
409 3 89 4 5 91
410 3 90 4 5 6
411 1 90 4 5 75
412 3 90 4 5 91
413 4 4 5 6 7
414 5 4 5 6 92
415 4 75 5 6 7
416 5 75 5 6 92
417 6 91 5 6 7
418 5 91 5 6 92
419 2 4 5 75 76
420 1 4 5 75 190
421 1 4 5 75 191
422 3 6 5 75 76
423 3 6 5 75 190
424 3 6 5 75 191
425 3 91 5 75 76
426 3 91 5 75 190
427 3 91 5 75 191
428 7 5 6 7 8
429 7 5 6 7 9
430 8 92 6 7 8
431 7 92 6 7 9
432 9 6 7 9 10
433 10 8 7 9 10
434 11 7 9 10 11
435 12 7 9 10 93
436 12 7 9 10 94
437 3 9 10 11 12
438 13 9 10 11 95
439 13 9 10 11 96
440 3 93 10 11 12
441 3 93 10 11 95
442 3 93 10 11 96
443 3 94 10 11 12
444 3 94 10 11 95
445 3 94 10 11 96
446 2 5 75 76 77
447 2 5 75 76 78
448 2 5 75 76 82
449 1 190 75 76 77
450 1 190 75 76 78
451 1 190 75 76 82
452 1 191 75 76 77
453 1 191 75 76 78
454 1 191 75 76 82
455 1 75 76 77 192
456 1 75 76 77 193
457 1 75 76 77 194
458 1 78 76 77 192
459 1 78 76 77 193
460 1 78 76 77 194
461 1 82 76 77 192
462 1 82 76 77 193
463 1 82 76 77 194
464 3 75 76 78 79
465 3 75 76 78 195
466 3 75 76 78 196
467 3 77 76 78 79
468 3 77 76 78 195
469 3 77 76 78 196
470 3 82 76 78 79
471 3 82 76 78 195
472 3 82 76 78 196
473 2 75 76 82 2
474 1 75 76 82 197
475 1 75 76 82 198
476 2 77 76 82 2
477 1 77 76 82 197
478 1 77 76 82 198
479 2 78 76 82 2
480 1 78 76 82 197
481 1 78 76 82 198
482 22 76 78 79 80
483 22 195 78 79 80
484 22 196 78 79 80
485 2 76 82 2 1
486 2 76 82 2 3
487 2 76 82 2 4
488 1 197 82 2 1
489 1 197 82 2 3
490 1 197 82 2 4
491 1 198 82 2 1
492 1 198 82 2 3
493 1 198 82 2 4
494 1 1 2 3 86
495 1 1 2 3 87
496 1 1 2 3 88
497 1 4 2 3 86
498 1 4 2 3 87
499 1 4 2 3 88
500 1 82 2 3 86
501 1 82 2 3 87
502 1 82 2 3 88
503 2 1 2 4 5
504 1 1 2 4 89
505 1 1 2 4 90
506 2 3 2 4 5
507 1 3 2 4 89
508 1 3 2 4 90
509 2 82 2 4 5
510 1 82 2 4 89
511 1 82 2 4 90
512 1 83 1 2 3
513 1 83 1 2 4
514 1 83 1 2 82
515 1 84 1 2 3
516 1 84 1 2 4
517 1 84 1 2 82
518 1 85 1 2 3
519 1 85 1 2 4
520 1 85 1 2 82
521 17 66 67 68 69
522 18 66 67 68 177
523 18 66 67 68 178
524 19 175 67 68 69
525 3 175 67 68 177
526 3 175 67 68 178
527 19 176 67 68 69
528 3 176 67 68 177
529 3 176 67 68 178
530 20 67 68 69 179
531 21 177 68 69 179
532 21 178 68 69 179

Impropers

1 3 57 55 58 165
2 2 55 54 57 56
3 1 63 62 64 174
4 2 64 63 66 65
5 1 6 5 7 92
6 2 7 6 9 8
