ITEM: TIMESTEP
0
ITEM: NUMBER OF ATOMS
198
ITEM: BOX BOUNDS pp pp pp
-1.6428290676767677e+01 1.6428290676767677e+01
-1.6428290676767677e+01 1.6428290676767677e+01
-1.6428290676767677e+01 1.6428290676767677e+01
ITEM: ATOMS id x y z xu yu zu vx vy vz fx fy fz
1 1.10803 2.39889 5.86345 1.10803 2.39889 5.86345 0 0 0 -0.00329959 0.00559697 0.000596186
2 -0.228123 3.13696 6.16642 -0.228123 3.13696 6.16642 0 0 0 -0.00815027 -0.00930574 0.00595324
3 0.135346 4.53485 6.75579 0.135346 4.53485 6.75579 0 0 0 0.00235321 -0.000755447 -0.00529971
4 -1.00485 3.31111 4.8306 -1.00485 3.31111 4.8306 0 0 0 -0.0154316 -0.00892479 -0.000229364
5 -2.43888 3.91039 4.96579 -2.43888 3.91039 4.96579 0 0 0 0.00363139 -0.00552655 -0.000735057
6 -3.29848 3.40459 3.88457 -3.29848 3.40459 3.88457 0 0 0 0.00214143 -0.00811425 0.0369114
7 -3.15605 3.73316 2.55783 -3.15605 3.73316 2.55783 0 0 0 0.0229828 0.0152045 -0.0407472
8 -2.34883 4.53084 2.11171 -2.34883 4.53084 2.11171 0 0 0 0.00230265 -0.00387353 0.0292528
9 -3.94825 2.91073 1.82171 -3.94825 2.91073 1.82171 0 0 0 0.0079837 0.00150959 0.00969301
10 -3.80138 2.88124 0.392179 -3.80138 2.88124 0.392179 0 0 0 0.00472327 0.00687408 -0.00651332
11 -4.69006 1.73063 -0.127477 -4.69006 1.73063 -0.127477 0 0 0 0.00566865 -0.00300126 -0.0120303
12 -4.38347 1.30326 -1.58353 -4.38347 1.30326 -1.58353 0 0 0 -0.00204279 -0.00233908 -0.0031437
13 -2.92638 0.823117 -1.76319 -2.92638 0.823117 -1.76319 0 0 0 -0.00847607 -0.0092101 -0.000904804
14 -2.86969 -0.0780431 -2.88703 -2.86969 -0.0780431 -2.88703 0 0 0 -0.000777193 0.00431537 0.00240727
15 -1.5428 -0.48844 -3.2841 -1.5428 -0.48844 -3.2841 0 0 0 0.000939196 -0.00593303 -0.00511474
16 -0.959029 -1.49956 -2.2676 -0.959029 -1.49956 -2.2676 0 0 0 -0.0186383 -0.00269826 -0.0046411
17 0.534688 -1.77125 -2.54468 0.534688 -1.77125 -2.54468 0 0 0 -0.00247892 -0.0204635 -0.00712527
18 1.20417 -2.57432 -1.41109 1.20417 -2.57432 -1.41109 0 0 0 -0.0142552 -0.0102181 -0.00587466
19 2.61697 -2.55469 -1.66092 2.61697 -2.55469 -1.66092 0 0 0 0.00203972 -0.00170949 0.0109459
20 3.43464 -3.11859 -0.62124 3.43464 -3.11859 -0.62124 0 0 0 0.00294281 -0.00276732 0.00238124
21 4.90598 -2.80656 -0.968188 4.90598 -2.80656 -0.968188 0 0 0 0.00732564 -0.00842322 0.00624568
22 5.23094 -1.29446 -0.85735 5.23094 -1.29446 -0.85735 0 0 0 -0.00937845 -0.0111347 -0.00578005
23 6.52321 -0.926259 -1.61078 6.52321 -0.926259 -1.61078 0 0 0 -0.00264247 0.00952943 -0.00209186
24 6.95044 0.377458 -1.1711 6.95044 0.377458 -1.1711 0 0 0 9.44967e-05 0.0127377 -0.00017904
25 7.89077 1.05221 -2.0348 7.89077 1.05221 -2.0348 0 0 0 -0.0134007 -0.00759084 -0.001805
26 9.24823 0.302001 -2.08092 9.24823 0.302001 -2.08092 0 0 0 0.00608745 0.0214688 0.0115872
27 9.84673 0.0148581 -0.678531 9.84673 0.0148581 -0.678531 0 0 0 -0.00552375 -0.00246105 0.0113541
28 11.2995 -0.529457 -0.743064 11.2995 -0.529457 -0.743064 0 0 0 -0.0105884 0.0110611 0.00923176
29 11.4081 -1.60718 -1.70284 11.4081 -1.60718 -1.70284 0 0 0 -0.00756998 0.0115405 0.00691874
30 11.3127 -2.969 -1.22545 11.3127 -2.969 -1.22545 0 0 0 0.00903017 -0.00038348 -0.0022797
31 9.85908 -3.31912 -0.822508 9.85908 -3.31912 -0.822508 0 0 0 -0.00480697 -0.0111973 -0.00805836
32 9.61463 -4.8472 -0.724265 9.61463 -4.8472 -0.724265 0 0 0 -0.00423076 -0.0105008 0.0144781
33 9.46119 -5.52972 -2.10441 9.46119 -5.52972 -2.10441 0 0 0 -9.71446e-05 0.00135104 3.0635e-05
34 8.22665 -5.07995 -2.68856 8.22665 -5.07995 -2.68856 0 0 0 0.00869336 0.00371731 -0.00975783
35 7.97744 -5.56123 -4.02086 7.97744 -5.56123 -4.02086 0 0 0 0.00203841 -0.000630705 -0.00214704
36 6.59243 -5.04363 -4.46884 6.59243 -5.04363 -4.46884 0 0 0 0.00339658 0.0105364 -0.0154816
37 6.54658 -3.50275 -4.61673 6.54658 -3.50275 -4.61673 0 0 0 0.00611425 0.00172213 0.00341434
38 5.11406 -2.99845 -4.89149 5.11406 -2.99845 -4.89149 0 0 0 0.00685274 0.0162405 -0.0143205
39 5.1323 -1.56111 -4.86603 5.1323 -1.56111 -4.86603 0 0 0 -0.000118739 -0.00900592 -0.00999825
40 3.82688 -0.968062 -4.77275 3.82688 -0.968062 -4.77275 0 0 0 -0.0123561 -0.00197352 0.00275775
41 3.99003 0.568573 -4.77539 3.99003 0.568573 -4.77539 0 0 0 0.00567959 0.00102911 -0.0107432
42 2.65439 1.32077 -4.54114 2.65439 1.32077 -4.54114 0 0 0 -0.00661058 -0.00751791 0.0121236
43 1.59154 1.0239 -5.62407 1.59154 1.0239 -5.62407 0 0 0 0.00844257 -0.000382613 -0.000784445
44 0.397064 1.7551 -5.2983 0.397064 1.7551 -5.2983 0 0 0 -0.000872084 0.010715 0.0129626
45 -0.703481 1.49652 -6.1882 -0.703481 1.49652 -6.1882 0 0 0 0.000159058 -0.0113128 -0.02362
46 -1.9545 2.20857 -5.63132 -1.9545 2.20857 -5.63132 0 0 0 0.00521369 0.00444468 0.0237103
47 -3.24673 1.73783 -6.33919 -3.24673 1.73783 -6.33919 0 0 0 0.000891745 0.00566557 -0.0152468
48 -4.51027 2.19277 -5.58372 -4.51027 2.19277 -5.58372 0 0 0 0.00637971 0.00855645 0.0200005
49 -5.66154 1.76614 -6.33874 -5.66154 1.76614 -6.33874 0 0 0 0.00505653 -0.010271 -0.0102743
50 -6.94084 2.00424 -5.71725 -6.94084 2.00424 -5.71725 0 0 0 0.00955104 0.020404 0.0162273
51 -7.21156 0.915928 -4.64824 -7.21156 0.915928 -4.64824 0 0 0 -0.0194735 -0.0212209 -0.0352801
52 -8.59398 1.10467 -3.97633 -8.59398 1.10467 -3.97633 0 0 0 0.0131386 0.00761478 0.00937337
53 -8.92482 -0.00299211 -2.94981 -8.92482 -0.00299211 -2.94981 0 0 0 -0.00198995 -0.0116812 -0.0276106
54 -7.93342 0.0245931 -1.90561 -7.93342 0.0245931 -1.90561 0 0 0 -0.00246653 -0.00744417 0.000434022
55 -8.0797 -0.804637 -0.836463 -8.0797 -0.804637 -0.836463 0 0 0 0.051688 0.0259396 0.0018211
56 -9.02279 -1.55181 -0.639353 -9.02279 -1.55181 -0.639353 0 0 0 -0.017192 -0.010655 -0.000704657
57 -6.99959 -0.651359 0.000709528 -6.99959 -0.651359 0.000709528 0 0 0 -0.024866 -0.00446623 -0.0278571
58 -6.83439 -1.33193 1.29622 -6.83439 -1.33193 1.29622 0 0 0 0.0159938 0.00517366 0.000932616
59 -5.93806 -2.61765 1.24962 -5.93806 -2.61765 1.24962 0 0 0 -0.0197267 -0.000360071 -0.00065223
60 -6.6042 -3.65872 0.300037 -6.6042 -3.65872 0.300037 0 0 0 0.00652095 -0.00253166 0.0236275
61 -4.50629 -2.27225 0.715289 -4.50629 -2.27225 0.715289 0 0 0 0.0018784 -0.00783474 0.0229546
62 -3.57544 -1.75325 1.8321 -3.57544 -1.75325 1.8321 0 0 0 -0.00497204 -0.0103215 0.00940118
63 -2.30926 -1.27845 1.26142 -2.30926 -1.27845 1.26142 0 0 0 0.026517 0.000782472 -0.0159985
64 -1.46097 -0.404482 1.89847 -1.46097 -0.404482 1.89847 0 0 0 -0.0402501 0.00165331 0.0516596
65 -1.65975 0.0858034 2.99593 -1.65975 0.0858034 2.99593 0 0 0 0.0218053 -0.0102692 -0.0225179
66 -0.372057 -0.180474 1.11048 -0.372057 -0.180474 1.11048 0 0 0 0.0392892 -0.0032598 -0.0109049
67 0.638677 0.764827 1.52506 0.638677 0.764827 1.52506 0 0 0 -0.0233764 -0.0147916 -0.0158528
68 0.0917918 2.19817 1.35029 0.0917918 2.19817 1.35029 0 0 0 0.0174275 0.00379742 -0.00350815
69 1.0688 3.15295 1.76 1.0688 3.15295 1.76 0 0 0 0.0101819 -0.011663 -0.00757274
70 -3.31385 -2.86185 2.89321 -3.31385 -2.86185 2.89321 0 0 0 0.00975272 -0.0039118 0.00133029
71 -4.5183 -3.8345 3.15992 -4.5183 -3.8345 3.15992 0 0 0 -0.00973294 0.00304768 0.00319823
72 -4.59344 -4.13756 4.68504 -4.59344 -4.13756 4.68504 0 0 0 -0.0031421 0.00740072 0.00765227
73 -4.28551 -5.19599 2.43651 -4.28551 -5.19599 2.43651 0 0 0 -0.0028391 0.00266618 0.0165055
74 -5.87321 -3.18506 2.71882 -5.87321 -3.18506 2.71882 0 0 0 -0.0141848 0.0156563 0.00581747
75 -3.08872 3.6092 6.35013 -3.08872 3.6092 6.35013 0 0 0 0.00763852 0.0212841 -0.00721511
76 -2.62199 2.27777 7.01618 -2.62199 2.27777 7.01618 0 0 0 0.000167787 -0.0131021 0.00406168
77 -3.30154 2.17861 8.4166 -3.30154 2.17861 8.4166 0 0 0 -0.00719074 0.00429269 0.00494701
78 -3.10336 1.06744 6.13486 -3.10336 1.06744 6.13486 0 0 0 -0.0112837 0.00337368 0.000845369
79 -2.79056 -0.229413 6.75719 -2.79056 -0.229413 6.75719 0 0 0 -0.0164536 0.0313378 -0.0116303
80 -2.38413 -1.35365 6.70039 -2.38413 -1.35365 6.70039 0 0 0 0.0301969 -0.0641874 -0.0136446
81 -2.00825 -2.4444 6.49689 -2.00825 -2.4444 6.49689 0 0 0 -0.0020618 0.0344385 0.00326744
82 -1.05628 2.29161 7.2048 -1.05628 2.29161 7.2048 0 0 0 -0.00898564 0.000514834 0.00431614
83 0.923059 1.40905 5.42579 0.923059 1.40905 5.42579 0 0 0 0.0135247 0.0111935 0.0059423
84 1.72132 2.9678 5.15246 1.72132 2.9678 5.15246 0 0 0 0.00535166 -0.0110507 0.0132464
85 1.69644 2.25729 6.77923 1.69644 2.25729 6.77923 0 0 0 -0.00576628 -0.00132093 -0.00804004
86 0.723948 5.12019 6.03758 0.723948 5.12019 6.03758 0 0 0 -0.0041241 -0.00291726 -0.007363
87 -0.752033 5.12366 7.01067 -0.752033 5.12366 7.01067 0 0 0 0.00446594 -0.00958895 -0.0128801
88 0.736318 4.43123 7.66845 0.736318 4.43123 7.66845 0 0 0 -0.000525266 -0.00299852 -0.0033329
89 -0.423713 3.93817 4.14233 -0.423713 3.93817 4.14233 0 0 0 0.00690173 -0.00673109 0.0100124
90 -1.06654 2.33114 4.34416 -1.06654 2.33114 4.34416 0 0 0 0.000283884 -0.00466 -0.00540812
91 -2.37267 5.00166 4.86275 -2.37267 5.00166 4.86275 0 0 0 0.00898134 -0.0124155 -0.0113495
92 -3.97873 2.68727 4.09736 -3.97873 2.68727 4.09736 0 0 0 0.00721814 0.00554616 0.00286882
93 -2.75092 2.69251 0.137756 -2.75092 2.69251 0.137756 0 0 0 -0.0108882 -0.00133065 -0.021856
94 -4.10782 3.83687 -0.0531727 -4.10782 3.83687 -0.0531727 0 0 0 0.00673478 -0.00173382 -0.00189832
95 -4.56055 0.861029 0.528622 -4.56055 0.861029 0.528622 0 0 0 -0.00530156 -0.00239963 0.000708083
96 -5.74346 2.02877 -0.0505308 -5.74346 2.02877 -0.0505308 0 0 0 0.00376555 -0.00518683 -0.00138507
97 -4.58505 2.13726 -2.26706 -4.58505 2.13726 -2.26706 0 0 0 -0.000926019 -0.00744471 0.0063067
98 -5.06751 0.490849 -1.8596 -5.06751 0.490849 -1.8596 0 0 0 -0.00385062 -0.00324173 -0.00802871
99 -2.60668 0.307096 -0.851547 -2.60668 0.307096 -0.851547 0 0 0 -0.00132211 0.00624685 -0.00573737
100 -2.26679 1.68561 -1.92518 -2.26679 1.68561 -1.92518 0 0 0 -0.0104367 0.00897001 0.00868542
101 -1.58391 -0.957887 -4.27502 -1.58391 -0.957887 -4.27502 0 0 0 0.00588501 0.00570192 -0.00436965
102 -0.88484 0.387599 -3.35264 -0.88484 0.387599 -3.35264 0 0 0 0.00341788 -0.010558 -0.00896004
103 -1.04902 -1.10452 -1.25225 -1.04902 -1.10452 -1.25225 0 0 0 -0.00151377 0.00736884 -0.00929765
104 -1.52766 -2.4375 -2.30309 -1.52766 -2.4375 -2.30309 0 0 0 -0.00133967 0.00269667 0.0116575
105 0.649849 -2.30284 -3.49795 0.649849 -2.30284 -3.49795 0 0 0 0.00287189 -0.00263189 -0.00321293
106 1.05736 -0.811774 -2.64492 1.05736 -0.811774 -2.64492 0 0 0 -0.00781426 0.00499127 -0.00260331
107 0.987797 -2.09796 -0.445359 0.987797 -2.09796 -0.445359 0 0 0 -0.0211106 0.00208853 -0.0125474
108 0.825536 -3.60443 -1.39429 0.825536 -3.60443 -1.39429 0 0 0 -0.0116831 -0.00103219 -0.00776641
109 3.18262 -2.67985 0.35327 3.18262 -2.67985 0.35327 0 0 0 0.00207234 -0.00366745 0.00788524
110 3.28425 -4.20468 -0.5713 3.28425 -4.20468 -0.5713 0 0 0 0.00594818 0.000574404 -0.00719319
111 5.11436 -3.16331 -1.98241 5.11436 -3.16331 -1.98241 0 0 0 -0.0133195 -0.00502246 0.00410949
112 5.56903 -3.36885 -0.298533 5.56903 -3.36885 -0.298533 0 0 0 -0.000136654 0.00896771 -0.00276905
113 5.32375 -1.02276 0.202003 5.32375 -1.02276 0.202003 0 0 0 -0.00290493 0.000735857 0.00557377
114 4.40964 -0.695507 -1.2714 4.40964 -0.695507 -1.2714 0 0 0 0.00522127 -0.00240128 0.00852689
115 6.32706 -0.926185 -2.69 6.32706 -0.926185 -2.69 0 0 0 0.00335371 0.0122386 -0.00348403
116 7.30061 -1.66764 -1.39471 7.30061 -1.66764 -1.39471 0 0 0 -0.016194 0.000578874 -0.00441692
117 7.47957 1.13804 -3.04921 7.47957 1.13804 -3.04921 0 0 0 -0.00304099 0.00724646 -0.00102371
118 8.0595 2.06789 -1.65527 8.0595 2.06789 -1.65527 0 0 0 0.00553593 -0.0172757 -0.00306731
119 9.95794 0.90929 -2.65682 9.95794 0.90929 -2.65682 0 0 0 0.00607539 0.00458792 0.000208349
120 9.12814 -0.636554 -2.63648 9.12814 -0.636554 -2.63648 0 0 0 -0.011803 -0.00824652 0.00378708
121 9.85309 0.94413 -0.0950171 9.85309 0.94413 -0.0950171 0 0 0 -0.0187735 0.00718175 0.00994825
122 9.20204 -0.680532 -0.130608 9.20204 -0.680532 -0.130608 0 0 0 0.0293066 0.000818559 -0.00375526
123 11.6293 -0.854648 0.252102 11.6293 -0.854648 0.252102 0 0 0 0.010446 -0.00375991 0.00348352
124 11.9571 0.28979 -1.06039 11.9571 0.28979 -1.06039 0 0 0 0.00369391 0.00855694 0.00546898
125 11.9906 -3.12957 -0.37721 11.9906 -3.12957 -0.37721 0 0 0 -0.00168455 0.00775063 -0.0113565
126 11.63 -3.6377 -2.0347 11.63 -3.6377 -2.0347 0 0 0 -0.0038277 -0.00364884 0.0116621
127 9.15854 -2.882 -1.54335 9.15854 -2.882 -1.54335 0 0 0 -0.00380766 0.00130495 -0.00770107
128 9.64392 -2.87318 0.155755 9.64392 -2.87318 0.155755 0 0 0 -0.00772855 0.00195706 -0.00567883
129 10.4379 -5.31638 -0.170722 10.4379 -5.31638 -0.170722 0 0 0 0.00179941 0.00903498 0.00753101
130 8.70318 -5.02875 -0.140079 8.70318 -5.02875 -0.140079 0 0 0 -0.00301075 -0.0088948 0.00156292
131 9.43555 -6.61915 -1.97254 9.43555 -6.61915 -1.97254 0 0 0 -0.00494958 0.00348658 0.00192439
132 10.3097 -5.27647 -2.75251 10.3097 -5.27647 -2.75251 0 0 0 0.01667 -0.0012305 -0.00166595
133 8.75306 -5.20292 -4.7104 8.75306 -5.20292 -4.7104 0 0 0 0.000212856 -0.00163936 2.61446e-05
134 7.97653 -6.65893 -4.03054 7.97653 -6.65893 -4.03054 0 0 0 0.0058507 0.00738668 -0.0130348
135 6.32613 -5.5076 -5.42696 6.32613 -5.5076 -5.42696 0 0 0 0.00512482 0.0052559 0.0019723
136 5.83959 -5.36815 -3.73863 5.83959 -5.36815 -3.73863 0 0 0 -0.00472358 -0.00121309 0.00367277
137 6.92005 -3.03461 -3.69775 6.92005 -3.03461 -3.69775 0 0 0 -0.0062294 -0.00345908 -0.00118501
138 7.21215 -3.18701 -5.4302 7.21215 -3.18701 -5.4302 0 0 0 -0.000871825 0.00482495 0.0188583
139 4.43673 -3.38194 -4.11719 4.43673 -3.38194 -4.11719 0 0 0 0.00194842 0.00226577 -0.000170122
140 4.76533 -3.35835 -5.86792 4.76533 -3.35835 -5.86792 0 0 0 0.0114889 -0.00341589 -0.00602942
141 3.20927 -1.28645 -5.62177 3.20927 -1.28645 -5.62177 0 0 0 -0.000714189 -0.00475792 0.00380136
142 3.3383 -1.28247 -3.84145 3.3383 -1.28247 -3.84145 0 0 0 0.00258586 0.00375421 -0.000343603
143 4.69925 0.85388 -3.98737 4.69925 0.85388 -3.98737 0 0 0 0.000686539 0.00288453 -0.00153321
144 4.42913 0.886859 -5.72958 4.42913 0.886859 -5.72958 0 0 0 -0.0121843 -0.00111744 0.0113581
145 2.25609 1.05465 -3.55403 2.25609 1.05465 -3.55403 0 0 0 0.00186315 0.00114728 -0.00846785
146 2.85246 2.40002 -4.52005 2.85246 2.40002 -4.52005 0 0 0 -0.000572656 0.00951702 0.00432124
147 1.37172 -0.0509388 -5.64611 1.37172 -0.0509388 -5.64611 0 0 0 -0.00388012 0.0107011 0.00555779
148 1.96789 1.32842 -6.60944 1.96789 1.32842 -6.60944 0 0 0 -0.00829659 0.000424339 0.00433092
149 -0.479164 1.86228 -7.1987 -0.479164 1.86228 -7.1987 0 0 0 -0.00770452 -0.000350953 0.0121247
150 -0.892859 0.416259 -6.23952 -0.892859 0.416259 -6.23952 0 0 0 -0.000405401 0.00371693 0.00652331
151 -1.84296 3.29463 -5.74277 -1.84296 3.29463 -5.74277 0 0 0 0.00914125 0.00361613 0.000154398
152 -2.03707 2.00858 -4.55677 -2.03707 2.00858 -4.55677 0 0 0 -0.00212926 0.0034523 -0.00337411
153 -3.25503 0.641772 -6.40103 -3.25503 0.641772 -6.40103 0 0 0 -0.000603067 -0.00233757 -0.0047705
154 -3.26602 2.12188 -7.36723 -3.26602 2.12188 -7.36723 0 0 0 0.0144318 0.0108059 0.0114796
155 -4.50819 1.73867 -4.58571 -4.50819 1.73867 -4.58571 0 0 0 0.000552589 0.0040751 -0.0116434
156 -4.51104 3.28514 -5.47647 -4.51104 3.28514 -5.47647 0 0 0 0.0108192 0.00202217 0.00346084
157 -7.72696 1.95603 -6.48148 -7.72696 1.95603 -6.48148 0 0 0 -0.0183591 -0.000596451 -0.012883
158 -6.96804 3.00339 -5.26289 -6.96804 3.00339 -5.26289 0 0 0 -0.00778143 -0.00324439 -0.00637417
159 -6.43161 0.942934 -3.87904 -6.43161 0.942934 -3.87904 0 0 0 0.000938116 0.0174182 0.00737078
160 -7.16459 -0.0738869 -5.12024 -7.16459 -0.0738869 -5.12024 0 0 0 0.0202801 -0.00342551 0.0177516
161 -9.37441 1.11457 -4.74777 -9.37441 1.11457 -4.74777 0 0 0 -0.0157264 -0.00305329 0.00520702
162 -8.62935 2.08122 -3.47639 -8.62935 2.08122 -3.47639 0 0 0 -0.00027407 -0.00708673 -0.00166969
163 -9.92245 0.179219 -2.52869 -9.92245 0.179219 -2.52869 0 0 0 0.00990047 -0.0101684 0.00956646
164 -8.92892 -0.983842 -3.44346 -8.92892 -0.983842 -3.44346 0 0 0 0.0195335 -0.0110195 0.00689118
165 -6.29039 0.0045368 -0.297993 -6.29039 0.0045368 -0.297993 0 0 0 -0.00156381 0.00969289 -0.0038551
166 -7.82583 -1.59573 1.6876 -7.82583 -1.59573 1.6876 0 0 0 -0.0144504 0.00634558 -0.00899133
167 -6.39373 -0.610131 1.99588 -6.39373 -0.610131 1.99588 0 0 0 0.00521694 -0.000119648 -0.0122343
168 -6.61623 -3.29891 -0.736573 -6.61623 -3.29891 -0.736573 0 0 0 0.000886412 -0.00154799 0.00394286
169 -6.06969 -4.61497 0.305872 -6.06969 -4.61497 0.305872 0 0 0 -0.00989415 0.00691744 0.00736829
170 -7.64122 -3.85701 0.599802 -7.64122 -3.85701 0.599802 0 0 0 -0.00839115 -0.00267506 0.014703
171 -4.044 -3.15514 0.257828 -4.044 -3.15514 0.257828 0 0 0 -0.00776326 0.000992109 -0.00700561
172 -4.5642 -1.53405 -0.093688 -4.5642 -1.53405 -0.093688 0 0 0 -0.00646151 -0.0033476 -0.00187078
173 -4.0719 -0.905993 2.32364 -4.0719 -0.905993 2.32364 0 0 0 -0.00638535 -0.0131171 -0.00423786
174 -2.02239 -1.61931 0.353407 -2.02239 -1.61931 0.353407 0 0 0 -0.0038201 -0.00171898 0.0173258
175 0.925125 0.591974 2.57096 0.925125 0.591974 2.57096 0 0 0 0.00126272 -0.0188846 -0.00930067
176 1.53272 0.645948 0.899431 1.53272 0.645948 0.899431 0 0 0 -0.00815462 -0.0117697 -0.00338101
177 -0.819035 2.31617 1.94778 -0.819035 2.31617 1.94778 0 0 0 -0.00655509 -0.00544387 -0.0157175
178 -0.171456 2.35469 0.296609 -0.171456 2.35469 0.296609 0 0 0 0.00241909 0.00475387 -0.0137872
179 0.66831 4.03711 1.67682 0.66831 4.03711 1.67682 0 0 0 0.0001278 0.00518268 -0.00286055
180 -3.02527 -2.35583 3.82307 -3.02527 -2.35583 3.82307 0 0 0 0.020009 -0.0103521 0.00797865
181 -2.43418 -3.45032 2.59995 -2.43418 -3.45032 2.59995 0 0 0 0.00122319 -0.00718105 0.00245411
182 -3.65809 -4.58581 5.04483 -3.65809 -4.58581 5.04483 0 0 0 -0.00168445 0.00403467 -0.00771507
183 -5.41002 -4.83612 4.90891 -5.41002 -4.83612 4.90891 0 0 0 0.00447835 0.00728423 -0.00386278
184 -4.76846 -3.22154 5.26416 -4.76846 -3.22154 5.26416 0 0 0 0.0120604 0.0088025 0.00407156
185 -5.15282 -5.8579 2.55607 -5.15282 -5.8579 2.55607 0 0 0 -8.88488e-06 0.00623192 0.00789994
186 -3.41256 -5.71445 2.85379 -3.41256 -5.71445 2.85379 0 0 0 -0.0108929 0.0012402 0.0171825
187 -4.1001 -5.07244 1.36495 -4.1001 -5.07244 1.36495 0 0 0 -0.000750074 -0.00520301 0.00590087
188 -6.69823 -3.8907 2.88448 -6.69823 -3.8907 2.88448 0 0 0 -0.00829829 0.0121925 -0.00135678
189 -6.06437 -2.35956 3.41784 -6.06437 -2.35956 3.41784 0 0 0 -0.0158109 0.00917681 0.00809638
190 -4.1825 3.61648 6.25066 -4.1825 3.61648 6.25066 0 0 0 0.00550921 0.00567537 0.0114784
191 -2.86168 4.44005 7.02878 -2.86168 4.44005 7.02878 0 0 0 -0.00277501 0.0102634 0.00253488
192 -3.07083 3.05916 9.03009 -3.07083 3.05916 9.03009 0 0 0 0.00749633 -0.00769001 -0.00169927
193 -4.39322 2.11532 8.32119 -4.39322 2.11532 8.32119 0 0 0 0.00464305 -0.016677 0.00803456
194 -2.95817 1.29506 8.96976 -2.95817 1.29506 8.96976 0 0 0 -0.00450305 -0.00436435 -0.0179835
195 -2.64 1.10354 5.1451 -2.64 1.10354 5.1451 0 0 0 0.0208767 0.00678796 -0.000275646
196 -4.18838 1.13828 5.98724 -4.18838 1.13828 5.98724 0 0 0 -0.0058819 0.00436613 -0.00574497
197 -0.690035 1.25764 7.21051 -0.690035 1.25764 7.21051 0 0 0 0.00348741 0.0014232 0.00192622
198 -0.816344 2.66363 8.20963 -0.816344 2.66363 8.20963 0 0 0 0.00872581 0.00604349 -0.000371539
