16

C      1.917437   -0.613545   -0.221011
C      0.762262    0.333797    0.080505
O      0.862790    1.446197   -0.813478
C     -0.609127   -0.346268   -0.099012
C     -1.756906    0.572995    0.302267
O     -0.770736   -0.692072   -1.480841
H      1.896139   -0.953168   -1.262172
H      1.894331   -1.488441    0.435576
H      2.874578   -0.099135   -0.081715
H      0.865600    0.713513    1.102703
H      0.530224    1.109761   -1.670041
H     -0.650322   -1.268020    0.492020
H     -1.796695    1.463237   -0.334608
H     -1.665846    0.888629    1.345905
H     -2.716484    0.059200    0.178552
H     -1.637245   -1.126680   -1.570181
