25

O      0.556484    3.029937   -0.514241
C      0.978395    1.802739   -0.115752
C      2.208409    1.608333    0.511185
C      2.600647    0.318644    0.922935
C      1.770744   -0.781875    0.712008
O      2.189527   -1.998759    1.143661
C      0.564457   -0.582140    0.080952
C      0.173661    0.707870   -0.328469
C     -1.202396    0.577828   -0.935932
C     -2.185860    0.252470    0.206823
C     -1.757385   -1.173821    0.655884
C     -0.576474   -1.503552   -0.280270
C     -1.033914   -0.811065   -1.578412
H      1.242167    3.678805   -0.287030
H      2.879131    2.441447    0.697857
H      3.558977    0.179341    1.416858
H      1.498832   -2.648886    0.937890
H     -1.495230    1.380242   -1.613884
H     -3.218026    0.231425   -0.160569
H     -2.126774    0.968315    1.033844
H     -1.477813   -1.194694    1.714785
H     -2.585009   -1.875349    0.501892
H     -0.318581   -2.558313   -0.379231
H     -1.971668   -1.217535   -1.973912
H     -0.272300   -0.831405   -2.368874
