31

O      5.953986    0.802160   -0.386800
C      4.816181    0.194635   -0.983971
C      3.583977    0.452217   -0.126707
C      2.337384   -0.197764   -0.722932
C      1.104831    0.063133    0.144335
C     -0.144284   -0.585296   -0.454824
C     -1.377378   -0.326305    0.413910
C     -2.626424   -0.969393   -0.192366
C     -3.868420   -0.840603    0.696728
C     -4.333149    0.591667    0.933852
O     -4.608212    1.226250   -0.306116
H      5.781038    1.757558   -0.333263
H      5.013561   -0.878362   -1.070263
H      4.693524    0.603310   -1.992156
H      3.433150    1.533771   -0.020826
H      3.762538    0.073641    0.887448
H      2.166062    0.194736   -1.732674
H      2.496786   -1.278670   -0.818891
H      1.275496   -0.331347    1.153424
H      0.946568    1.144059    0.242119
H      0.015017   -1.665911   -0.554201
H     -0.316010   -0.189408   -1.463201
H     -1.208217   -0.727812    1.420276
H     -1.523357    0.755001    0.514437
H     -2.435890   -2.037414   -0.356758
H     -2.825616   -0.533277   -1.178584
H     -4.680758   -1.393598    0.208655
H     -3.683269   -1.325663    1.662144
H     -5.251491    0.588809    1.529999
H     -3.579294    1.174449    1.471048
H     -4.918330    2.125426   -0.104049
