25

O     -4.702264    0.868729   -1.281797
C     -3.554327    0.390465   -0.722799
C     -3.342081   -0.983947   -0.758045
C     -2.181664   -1.517641   -0.197320
C     -1.235920   -0.668425    0.378511
O     -0.127336   -1.257172    0.943364
C      1.097169   -0.701449    0.649423
C      1.976873   -0.504241    1.714509
C      3.245048    0.025941    1.476918
C      3.628082    0.337711    0.176385
O      4.876636    0.852820   -0.010030
C      2.765749    0.122935   -0.895737
C      1.495582   -0.406908   -0.658492
C     -1.464850    0.710337    0.430806
C     -2.627311    1.243865   -0.129888
H     -4.724354    1.833069   -1.168785
H     -4.079676   -1.636970   -1.215555
H     -2.013480   -2.590681   -0.213291
H      1.674267   -0.758344    2.726348
H      3.933147    0.190290    2.301120
H      5.011684    1.003687   -0.959879
H      3.062775    0.353181   -1.913799
H      0.826600   -0.593541   -1.494078
H     -0.747893    1.370637    0.910962
H     -2.792458    2.315653   -0.088852
