36

O      5.010730   -0.117674   -0.155961
C      3.647365    0.108078   -0.495255
C      3.001560    1.011105    0.546963
C      1.509113    1.196892    0.289639
C      0.745040   -0.142031    0.193543
C     -0.767379    0.072691   -0.149009
C     -1.461457    1.002711    0.870690
C     -2.954511    1.167720    0.602711
C     -3.668090   -0.175983    0.538994
O     -5.039660    0.024920    0.216401
C     -3.023584   -1.082245   -0.501266
C     -1.531081   -1.266916   -0.243115
C      1.439690   -1.069958   -0.827307
C      2.932605   -1.234094   -0.558781
H      5.451241    0.748467   -0.118610
H      3.621320    0.588284   -1.480568
H      3.502823    1.986656    0.554378
H      3.157409    0.591977    1.549695
H      1.370554    1.766796   -0.637818
H      1.110328    1.808423    1.105520
H      0.803457   -0.628552    1.177517
H     -0.825949    0.557778   -1.133675
H     -1.012735    2.001078    0.846796
H     -1.317634    0.608914    1.884791
H     -3.103942    1.715294   -0.337087
H     -3.408865    1.791073    1.382406
H     -3.633083   -0.659375    1.522093
H     -5.084245    0.449123   -0.657462
H     -3.177080   -0.666612   -1.505791
H     -3.526926   -2.056695   -0.505453
H     -1.392549   -1.835103    0.685399
H     -1.131782   -1.879825   -1.057694
H      0.991662   -2.068660   -0.804934
H      1.295994   -0.674847   -1.840911
H      3.386416   -1.858396   -1.338179
H      3.083242   -1.781013    0.381338
