28

C     -2.271175    0.080781   -2.109811
C     -1.418141   -0.233425   -0.873513
C     -2.323571   -0.638285    0.291104
O     -0.578698   -1.344235   -1.202826
C     -0.534167    0.987780   -0.543302
C      0.341351    0.933312    0.724398
C      1.535540   -0.045795    0.748817
C      2.346045    0.180860    2.030950
C      2.455349    0.100909   -0.465137
O      1.067321   -1.390637    0.810175
H     -2.877324   -0.785130   -2.400114
H     -2.942797    0.927162   -1.932519
H     -1.635637    0.314549   -2.971673
H     -1.742679   -1.008940    1.141783
H     -2.945706    0.197758    0.626294
H     -2.984796   -1.462966    0.000170
H     -1.157581   -2.070779   -1.501255
H     -1.191688    1.861329   -0.432433
H      0.112824    1.207532   -1.401444
H      0.734977    1.948641    0.872518
H     -0.306526    0.733867    1.586686
H      3.165059   -0.543569    2.109760
H      1.720088    0.034708    2.918935
H      2.771338    1.189156    2.068428
H      3.319622   -0.568108   -0.378914
H      2.823095    1.126824   -0.568769
H      1.949874   -0.185339   -1.392953
H      0.568001   -1.547961   -0.020314
