32

C     -2.640431    1.276595    0.046725
C     -1.277605    0.616308    0.005607
C     -0.107225    1.412339   -0.077141
C     -0.223127    2.918235   -0.194648
C      1.171421    0.799059   -0.017112
C      2.425494    1.655997    0.007327
O      2.884632    1.922902   -1.310652
C      1.277603   -0.616302   -0.005604
C      2.640428   -1.276592   -0.046723
C      0.107224   -1.412333    0.077145
C      0.223123   -2.918229    0.194652
C     -1.171422   -0.799054    0.017114
C     -2.425494   -1.655992   -0.007332
O     -2.884633   -1.922907    1.310646
H     -3.363186    0.687251    0.618453
H     -2.606295    2.241740    0.561741
H     -3.017231    1.422091   -0.970085
H     -0.254441    3.370557    0.801081
H      0.607688    3.349297   -0.760781
H     -1.116747    3.212158   -0.754079
H      2.254659    2.606804    0.522147
H      3.230992    1.176548    0.572622
H      2.273462    1.483897   -1.927169
H      3.363185   -0.687246   -0.618448
H      3.017228   -1.422097    0.970086
H      2.606290   -2.241731   -0.561751
H      0.254414   -3.370555   -0.801077
H      1.116753   -3.212156    0.754068
H     -0.607683   -3.349282    0.760805
H     -2.254654   -2.606797   -0.522154
H     -3.230992   -1.176543   -0.572629
H     -2.273427   -1.483961    1.927166
