28

O     -0.464523   -2.294617   -1.649666
C     -0.171664   -1.176008   -0.825080
C      1.071628   -0.439321   -1.355576
C      1.397176    0.760824   -0.451170
C      1.665147    0.257452    0.978850
C      0.427752   -0.478669    1.523947
C      0.105756   -1.669722    0.606264
C     -0.769564    0.486023    1.533144
C     -1.052912    0.986674    0.105218
O     -2.148238    1.890654    0.113765
C      0.192151    1.715781   -0.431142
C     -1.367851   -0.211486   -0.804086
H     -0.611205   -1.971585   -2.555567
H      1.925799   -1.127021   -1.403719
H      0.901589   -0.104970   -2.387204
H      2.280718    1.284626   -0.832183
H      2.531712   -0.415111    0.982068
H      1.915029    1.102633    1.631932
H      0.625726   -0.835255    2.540725
H      0.937382   -2.386332    0.603408
H     -0.761153   -2.224163    0.988673
H     -1.658013   -0.011984    1.942543
H     -0.572898    1.336195    2.199018
H     -2.920554    1.425534    0.479437
H     -0.003885    2.105877   -1.438399
H      0.410790    2.594775    0.189106
H     -2.275140   -0.729101   -0.464296
H     -1.610755    0.128295   -1.820010
