14

O      2.736909    0.377293    0.051996
C      1.382229    0.189240    0.026134
C      0.849754   -1.092081   -0.097415
F      1.683536   -2.138792   -0.190663
C     -0.528032   -1.283981   -0.123774
F     -1.023810   -2.523843   -0.243208
C     -1.382229   -0.189239   -0.026137
O     -2.736908   -0.377293   -0.051992
C     -0.849754    1.092082    0.097412
F     -1.683536    2.138793    0.190664
C      0.528032    1.283982    0.123770
F      1.023810    2.523842    0.243202
H      3.166229   -0.495952   -0.027414
H     -3.166230    0.495949    0.027424
