34

O     -4.714790   -0.538239   -0.154784
C     -3.720948   -0.120101    0.771039
C     -2.494037    0.362829    0.011415
C     -1.807796   -0.737062   -0.801546
C     -0.414277   -0.171499   -1.086357
C      0.746465   -1.173320   -0.914851
C      2.050619   -0.508077   -1.399983
C      2.316268    0.573751   -0.328121
C      3.703449    0.438822    0.299919
O      3.908503    1.461818    1.266306
C      1.157083    0.340640    0.679763
C      0.970549   -1.179656    0.599118
C     -0.141432    0.868391    0.028767
C     -1.378747    0.857882    0.928918
H     -5.481498   -0.834517    0.364817
H     -4.136189    0.688599    1.381247
H     -3.479126   -0.963372    1.426594
H     -2.789211    1.165838   -0.678089
H     -1.755990   -1.673652   -0.234227
H     -2.346185   -0.951261   -1.730899
H     -0.398689    0.301027   -2.075732
H      0.563397   -2.150656   -1.366287
H      2.861994   -1.244243   -1.438021
H      1.944386   -0.070984   -2.398291
H      2.234383    1.577276   -0.764500
H      4.484262    0.529285   -0.462658
H      3.835460   -0.525283    0.799792
H      3.819308    2.316328    0.810844
H      1.338835    0.735938    1.681498
H      1.858208   -1.746006    0.898380
H      0.114426   -1.550659    1.168978
H     -0.005782    1.870346   -0.395817
H     -1.249669    0.192667    1.790384
H     -1.593229    1.857148    1.322385
