20

O      2.384390    0.757356   -0.024697
C      1.063232    0.341894   -0.385422
C      0.057875    1.437239   -0.041187
C     -1.375633    0.980253   -0.295423
C     -1.693026   -0.323830    0.434376
C     -0.685416   -1.419543    0.099195
C      0.745194   -0.961597    0.361848
O      1.651538   -1.980452   -0.064501
H      2.569836    1.579950   -0.511068
H      1.073935    0.155451   -1.466302
H      0.274393    2.338615   -0.626895
H      0.176091    1.730659    1.009964
H     -2.074032    1.761235    0.025605
H     -1.526665    0.839667   -1.372841
H     -2.702619   -0.657674    0.169774
H     -1.688995   -0.144793    1.516657
H     -0.900269   -2.321467    0.684740
H     -0.792327   -1.716075   -0.952367
H      0.905866   -0.826501    1.438509
H      2.536631   -1.570387    0.000034
