36

C     -1.053868   -2.933337   -0.852913
C      0.171694   -2.022728   -0.772063
C      0.104779   -0.862465    0.284348
C      0.076725   -1.515488    1.694146
C     -1.144698    0.000664   -0.027687
C     -1.198103    0.737075   -1.230207
C     -2.307624    1.521383   -1.552250
C     -3.381605    1.582384   -0.677975
O     -4.445996    2.358479   -1.028298
C     -3.363036    0.871983    0.515403
C     -2.250321    0.086333    0.837775
C      1.381575    0.032055    0.272168
C      1.413942    1.208430    1.052916
C      2.539683    2.034704    1.079672
C      3.654795    1.698598    0.328861
O      4.733858    2.529597    0.381252
C      3.661508    0.548134   -0.448745
C      2.532130   -0.279423   -0.475081
H     -1.234554   -3.459148    0.088102
H     -1.957627   -2.381000   -1.124621
H     -0.893618   -3.694675   -1.624079
H      0.342982   -1.612718   -1.776203
H      1.033350   -2.667886   -0.554072
H     -0.779732   -2.183586    1.829602
H      0.982099   -2.110236    1.869031
H      0.025229   -0.769317    2.496300
H     -0.362786    0.712652   -1.927639
H     -2.328047    2.083872   -2.481047
H     -5.108198    2.311740   -0.319873
H     -4.198681    0.913601    1.206821
H     -2.274128   -0.454936    1.779300
H      0.549363    1.498568    1.647379
H      2.540494    2.937400    1.683490
H      5.425468    2.173958   -0.199910
H      4.530122    0.275021   -1.039605
H      2.582827   -1.169687   -1.094986
