37

C     -2.895878    2.025124   -0.208051
C     -2.367896    0.601640    0.034551
C     -2.878533    0.119454    1.390831
C     -0.827420    0.615448   -0.092561
C      0.007017   -0.707118   -0.092298
C      0.045047   -1.356618    1.310865
O      1.068282   -2.346453    1.397076
C     -0.566442   -1.747587   -1.097328
O     -1.825016   -2.270707   -0.691975
C      1.455856   -0.379831   -0.625389
C      2.239112    0.824658   -0.049775
C      2.592757    0.699408    1.429357
C      3.534051    1.006009   -0.855811
H     -3.990531    2.046494   -0.174325
H     -2.590331    2.392883   -1.193460
H     -2.519185    2.722965    0.547716
H     -2.799199   -0.025265   -0.752545
H     -2.779923   -0.962076    1.496193
H     -2.342726    0.601974    2.214810
H     -3.944946    0.342322    1.509398
H     -0.436510    1.271442    0.697057
H     -0.602037    1.128701   -1.038967
H      0.219837   -0.618660    2.096194
H     -0.892389   -1.859355    1.554974
H      0.984506   -2.758160    2.274376
H      0.120404   -2.595305   -1.204875
H     -0.696538   -1.293917   -2.086572
H     -2.066822   -2.954359   -1.340390
H      1.361915   -0.194189   -1.706250
H      2.085765   -1.276638   -0.552248
H      1.652430    1.740119   -0.187600
H      3.033254   -0.276626    1.655953
H      1.714326    0.846975    2.060598
H      3.315405    1.468354    1.725132
H      4.087780    1.886443   -0.512275
H      3.315715    1.149029   -1.919495
H      4.188861    0.133422   -0.756819
