31

C      4.131958   -0.474687   -0.316872
C      2.874236    0.329242   -0.606342
C      1.651429   -0.270540    0.093182
C      0.389927    0.553168   -0.201991
C     -0.941541    0.019913    0.409890
C     -2.075520    1.070053    0.170747
C     -2.387703    1.396144   -1.285802
C     -0.784036   -0.169863    1.944474
O     -2.009216   -0.527529    2.575987
C     -1.304962   -1.343932   -0.227774
O     -2.550404   -1.837601    0.261543
H      4.345972   -0.495448    0.756479
H      4.027090   -1.506650   -0.666691
H      4.992156   -0.029092   -0.826189
H      3.023931    1.362975   -0.273627
H      2.707603    0.357231   -1.689463
H      1.519625   -1.303625   -0.244732
H      1.841688   -0.297568    1.171437
H      0.282598    0.621269   -1.291737
H      0.558586    1.577652    0.156246
H     -1.805363    2.006663    0.676435
H     -3.008419    0.736539    0.641202
H     -2.700536    0.508845   -1.842556
H     -3.209036    2.119289   -1.333045
H     -1.530736    1.846092   -1.794129
H     -0.061451   -0.958056    2.178877
H     -0.431138    0.754927    2.413662
H     -2.381282   -1.270947    2.055421
H     -1.355028   -1.289475   -1.320315
H     -0.554464   -2.100746    0.020787
H     -3.255962   -1.384242   -0.235158
