20

O     -2.093596    0.255871    1.363338
C     -1.626203   -0.843251    0.589899
C     -0.184152   -0.609908    0.218544
C      0.789432   -1.514909    0.678441
C      2.138062   -1.337591    0.369622
C      2.536571   -0.250161   -0.399109
C      1.586226    0.658146   -0.863641
C      0.220699    0.488984   -0.573736
C     -0.760723    1.510714   -1.096776
O     -1.189321    2.378763   -0.058992
H     -2.989376    0.020523    1.662288
H     -1.741873   -1.754394    1.186478
H     -2.241914   -0.945578   -0.309496
H      0.503063   -2.365531    1.293469
H      2.877922   -2.043327    0.737873
H      3.587830   -0.102683   -0.631695
H      1.918053    1.511773   -1.451772
H     -1.634360    1.019381   -1.537545
H     -0.312758    2.122743   -1.886796
H     -1.383583    1.800435    0.709606
