26

C     -2.124093   -0.444845   -1.025440
C     -1.098244    0.096132   -0.026316
C     -1.802663    0.860337    1.098237
C      0.084115    0.897641   -0.653975
O      0.106799    0.973246   -2.095471
C      1.101201   -0.081552    0.009616
C      2.059918   -0.784538   -0.954898
C      1.881031    0.562897    1.159025
C     -0.087069   -0.995174    0.433501
O     -0.135585   -1.384265    1.821349
H     -2.699762    0.371498   -1.474981
H     -1.645943   -1.002811   -1.838006
H     -2.828244   -1.122982   -0.530926
H     -2.513134    0.213893    1.624929
H     -1.095303    1.246749    1.838322
H     -2.359287    1.714454    0.697057
H      0.155361    1.919546   -0.258543
H      0.917391    1.467624   -2.308422
H      2.777728   -0.074342   -1.379456
H      1.526202   -1.256856   -1.786911
H      2.625070   -1.568527   -0.438968
H      1.220762    1.062109    1.874752
H      2.458609   -0.188135    1.708975
H      2.582216    1.313852    0.778616
H     -0.146469   -1.903576   -0.181723
H     -0.960610   -1.892371    1.909656
