36

C     -3.838868    1.264111   -1.830568
C     -2.977424    0.429802   -0.926973
C     -1.587622    0.639348   -0.923437
C     -0.727474   -0.110486   -0.103680
C      0.725745    0.124113   -0.117344
C      1.623499   -0.922184   -0.388284
C      3.014107   -0.718997   -0.408144
C      3.917057   -1.880530   -0.708415
C      3.503988    0.567822   -0.147796
O      4.844905    0.843856   -0.148411
C      2.636598    1.633277    0.125957
C      3.170207    3.008586    0.409770
C      1.253714    1.398817    0.138571
C     -1.292912   -1.089786    0.727200
C     -2.676017   -1.322507    0.746208
C     -3.250627   -2.374579    1.651599
C     -3.505355   -0.557042   -0.083709
O     -4.848079   -0.818826   -0.030665
H     -3.245135    1.977290   -2.412194
H     -4.559868    1.839595   -1.241140
H     -4.373695    0.624841   -2.540317
H     -1.159920    1.395212   -1.581217
H      1.225755   -1.914230   -0.599421
H      3.349509   -2.800144   -0.886263
H      4.588626   -2.066293    0.135940
H      4.507368   -1.678695   -1.607997
H      5.342600    0.035491   -0.341027
H      2.361317    3.725108    0.587451
H      3.753333    3.372881   -0.442222
H      3.802465    2.992718    1.303384
H      0.575736    2.220543    0.363587
H     -0.645193   -1.672970    1.379792
H     -2.467419   -2.888645    2.218694
H     -3.784136   -3.129808    1.065395
H     -3.938558   -1.920055    2.371813
H     -5.318227   -0.227636   -0.637057
