33

C      3.128582    1.556412    2.637141
C      2.794457    0.776211    1.400522
C      3.659595    0.783808    0.302965
C      3.356768    0.035712   -0.833766
C      2.193599   -0.729640   -0.879368
O      1.974482   -1.414729   -2.040953
C      1.323265   -0.786209    0.215464
C      0.074082   -1.637951    0.229126
C     -1.139325   -0.959690   -0.365526
C     -1.943082   -0.136280    0.441584
C     -3.076217    0.505755   -0.077205
C     -3.900770    1.408191    0.792567
C     -3.391461    0.342575   -1.429967
C     -2.600627   -0.465935   -2.247013
C     -1.485001   -1.108462   -1.712376
O     -0.698120   -1.890726   -2.514367
C      1.640024   -0.019069    1.352813
H      2.217923    1.892411    3.144115
H      3.709267    0.935254    3.325953
H      3.710826    2.450463    2.390376
H      4.572353    1.373993    0.322370
H      4.025370    0.051594   -1.689876
H      1.024979   -1.643025   -2.093182
H      0.267756   -2.595972   -0.270238
H     -0.155826   -1.932044    1.262995
H     -1.681187    0.007566    1.488339
H     -4.942564    1.430983    0.455896
H     -3.902727    1.055652    1.829348
H     -3.497657    2.425159    0.764607
H     -4.253884    0.849765   -1.856831
H     -2.864860   -0.572063   -3.294578
H     -1.119511   -1.944339   -3.391123
H      0.979492   -0.045373    2.217627
