27

O      2.497176    1.524210   -1.657445
C      2.976941    1.080393   -0.387608
C      2.165733   -0.137372    0.067692
C      2.681007   -0.638913    1.423712
O      2.213786   -1.961625    1.696080
O      0.796181    0.306878    0.123760
C     -0.139349   -0.735724    0.389609
C     -1.496795   -0.260794   -0.059510
C     -1.803289   -0.187758   -1.426401
C     -3.056703    0.257581   -1.849100
C     -4.013913    0.639000   -0.910857
C     -3.717508    0.579541    0.449770
C     -2.464079    0.134635    0.874342
H      1.526846    1.596152   -1.548959
H      2.869031    1.914771    0.313531
H      4.038774    0.838219   -0.490663
H      2.230923   -0.922378   -0.695944
H      2.326729    0.004752    2.235083
H      3.775019   -0.668948    1.450991
H      2.662162   -2.566095    1.078988
H     -0.147816   -0.956701    1.462038
H      0.118651   -1.651338   -0.156208
H     -1.060270   -0.473516   -2.167526
H     -3.284279    0.310983   -2.910396
H     -4.988962    0.988026   -1.240012
H     -4.461320    0.883788    1.181422
H     -2.244676    0.102233    1.939118
