31

C     -3.351117    0.075673   -1.012667
C     -2.011753    0.573963   -0.485336
C     -1.218071   -0.478585    0.314929
C     -2.026704   -0.999540    1.519114
O     -1.302572   -2.000085    2.225379
C      0.146117    0.078223    0.805110
C      1.104255    0.621099   -0.279766
C      2.356753    1.271255    0.357329
C      3.292517    0.317068    1.086944
C      1.460431   -0.449776   -1.321573
O      2.373100    0.056500   -2.287431
H     -3.786671    0.819503   -1.687997
H     -3.231940   -0.858662   -1.570008
H     -4.068363   -0.087375   -0.203279
H     -1.426012    0.893378   -1.353734
H     -2.178695    1.465484    0.131127
H     -1.014856   -1.338213   -0.335886
H     -2.974026   -1.448347    1.207648
H     -2.250852   -0.187913    2.219122
H     -1.157194   -2.742991    1.614979
H      0.663749   -0.716293    1.355637
H     -0.047803    0.879333    1.531008
H      0.604820    1.443118   -0.807749
H      2.929566    1.790015   -0.421310
H      2.034336    2.049358    1.060738
H      3.692805   -0.447601    0.415375
H      2.792659   -0.179566    1.922993
H      4.142673    0.873112    1.496070
H      1.913650   -1.328875   -0.853197
H      0.571187   -0.786668   -1.862593
H      1.968012    0.843409   -2.690087
