20

O      3.645788   -0.231855   -0.721206
C      2.341117    0.010655   -0.408991
C      1.967309    1.323557   -0.177187
C      0.640608    1.617708    0.145035
C     -0.338886    0.599307    0.234464
C     -1.700850    0.824770    0.547851
O     -2.227784    2.073315    0.751406
C     -2.610115   -0.225634    0.663032
C     -2.190812   -1.531865    0.444984
C     -0.860421   -1.785606    0.114035
C      0.072596   -0.739819    0.007555
C      1.411314   -1.019078   -0.317459
H      3.764146   -1.187350   -0.848821
H      2.705326    2.118315   -0.240610
H      0.394651    2.656855    0.340784
H     -1.632191    2.730037    0.360901
H     -3.647019   -0.019483    0.914205
H     -2.899007   -2.351719    0.529155
H     -0.554868   -2.816262   -0.055207
H      1.719098   -2.045848   -0.493889
