22

O     -2.184232   -2.322451    0.867971
N     -1.355522   -1.600270    1.439830
O     -1.117507   -1.612803    2.655267
C     -0.600362   -0.659044    0.618609
C      0.787550   -0.599786    0.825914
C      1.579201    0.255805    0.050100
C      3.064431    0.360162    0.272782
O      3.603515   -0.915895    0.588991
C      0.951402    1.059121   -0.910157
C     -0.434434    0.999773   -1.105893
C     -1.245879    0.148352   -0.337974
C     -2.737061    0.092337   -0.569189
O     -3.202368    1.256684   -1.244325
H      1.259538   -1.229167    1.580029
H      3.265963    1.048188    1.100114
H      3.567674    0.723386   -0.629273
H      4.560813   -0.793991    0.703908
H      1.536534    1.743141   -1.522733
H     -0.881073    1.638572   -1.867609
H     -2.983551   -0.778777   -1.184395
H     -3.273944    0.045506    0.383248
H     -4.160687    1.141157   -1.363195
