37

C     -1.973166    1.069673    1.775403
C     -2.708011    0.486623    0.593072
C     -2.046754    0.286745   -0.643203
C     -0.586281    0.627820   -0.855759
C      0.324963   -0.572572   -0.585372
C      1.798066   -0.204978   -0.779581
C      2.708420   -1.403548   -0.504150
C      4.187482   -1.129489   -0.800632
C      4.822491   -0.025349    0.047048
N      4.764089   -0.406422    1.463405
C      5.187360    0.412098    2.189442
O      5.612081    1.240891    2.906024
C     -2.753613   -0.273816   -1.721553
C     -4.094945   -0.620251   -1.596369
C     -4.755053   -0.395893   -0.392936
C     -4.087089    0.181460    0.699086
N     -4.798341    0.385476    1.897658
C     -5.358184    1.418374    1.900104
O     -5.922339    2.450414    1.912019
H     -0.959389    0.665779    1.851949
H     -2.460002    0.825689    2.724664
H     -1.921221    2.158718    1.680533
H     -0.299187    1.481247   -0.230757
H     -0.446611    0.972640   -1.889021
H      0.061422   -1.398026   -1.258738
H      0.171377   -0.940688    0.436414
H      1.955868    0.149552   -1.805196
H      2.051031    0.620878   -0.105416
H      2.388917   -2.246908   -1.129246
H      2.588930   -1.726603    0.536848
H      4.745627   -2.061640   -0.646317
H      4.298819   -0.868728   -1.860164
H      5.868208    0.093599   -0.267581
H      4.315414    0.931253   -0.131453
H     -2.251934   -0.449356   -2.671818
H     -4.625273   -1.062386   -2.435666
H     -5.803171   -0.672276   -0.302742
