42

O      6.884717   -1.037815   -1.875039
C      5.855764   -0.470349   -1.864429
N      4.830668    0.099632   -1.841519
C      4.589669    0.829348   -0.589951
C      3.201657    1.475679   -0.642063
C      2.049567    0.457652   -0.676207
C      1.911086   -0.360383    0.630387
C      0.440598   -0.120080    1.043312
C      0.296772    1.357505    0.689521
C      0.655309    1.138393   -0.780760
C     -0.357470    0.054268   -1.229397
C     -1.766352    0.564310   -1.539007
C     -2.618954    0.278411   -0.310784
C     -1.984646   -0.961377    0.316084
C     -2.329965   -1.185463    1.793870
C     -3.798510   -1.544897    2.042931
N     -4.625889   -0.336141    1.948952
C     -5.774613   -0.540436    2.071330
O     -6.922835   -0.757357    2.195297
C     -0.474838   -0.846022    0.023863
H      4.668432    0.163903    0.279170
H      5.337746    1.624616   -0.470398
H      3.095704    2.138651    0.224553
H      3.138285    2.112269   -1.533834
H      2.202360   -0.215985   -1.528167
H      2.130593   -1.421063    0.470513
H      2.582083    0.009205    1.414251
H      0.259054   -0.373522    2.088749
H     -0.699861    1.765080    0.852694
H      1.010503    1.995531    1.221234
H      0.643253    2.035857   -1.403544
H      0.024942   -0.497978   -2.095873
H     -2.169501   -0.002526   -2.387683
H     -1.788400    1.622163   -1.818437
H     -3.660826    0.101982   -0.598331
H     -2.617415    1.129464    0.375978
H     -2.347814   -1.830712   -0.251818
H     -1.716692   -2.016858    2.164037
H     -2.066091   -0.301537    2.387025
H     -4.124116   -2.312921    1.328688
H     -3.882256   -1.968697    3.052912
H     -0.081716   -1.851798   -0.171633
