24

N      5.002741    1.946907    1.661520
C      4.725977    0.958438    1.120006
O      4.392348   -0.169104    0.500972
C      3.084722   -0.253687    0.279761
C      1.966719    0.517918    0.509691
C      0.865252   -0.212674   -0.011434
C     -0.518455    0.258900    0.026609
C     -1.030763    1.198268    0.957873
C     -2.375082    1.394590    0.675945
N     -3.257188    2.201994    1.316387
C     -4.319672    2.222424    0.818831
O     -5.392557    2.265277    0.339225
O     -2.691958    0.602983   -0.403100
C     -1.576279   -0.080548   -0.790320
O     -1.670814   -0.884267   -1.847354
C     -2.907622   -1.060835   -2.302708
N     -3.973667   -1.241234   -2.724605
C      1.357806   -1.409208   -0.530038
N      0.692247   -2.441545   -1.113357
C      1.388521   -3.339479   -1.406201
O      2.068131   -4.250699   -1.707669
O      2.723903   -1.405453   -0.342435
H      1.949924    1.490769    0.983498
H     -0.504233    1.690263    1.764538
