41

C      4.852043    1.455529    0.687202
C      3.679913    1.024856   -0.181728
C      2.660257    0.144261    0.565235
N      2.096172    0.880210    1.707408
C      1.217552    1.605676    1.429993
O      0.341047    2.343590    1.164865
O      1.733987   -0.341170   -0.415220
C      1.044769   -1.516674    0.020896
C     -0.079547   -1.871256   -0.976346
C     -0.775824   -3.156680   -0.494677
C      0.509382   -2.114534   -2.377284
C     -1.100201   -0.714830   -1.063812
O     -1.677219   -0.474592    0.220265
C     -2.534816    0.677492    0.236350
C     -2.875406    0.909671    1.719990
C     -3.579816    2.233233    1.977105
N     -3.796804    0.514540   -0.496925
C     -3.926432    1.268697   -1.384118
O     -4.045610    2.027047   -2.273682
H      5.373911    0.586314    1.099777
H      5.569593    2.030012    0.092722
H      4.524341    2.088027    1.517779
H      3.184770    1.912276   -0.595452
H      4.062685    0.469881   -1.047770
H      3.210544   -0.717254    0.967013
H      1.768065   -2.339433    0.081740
H      0.631830   -1.357636    1.024327
H     -0.075444   -3.999347   -0.473009
H     -1.183190   -3.041073    0.515683
H     -1.603425   -3.429453   -1.159055
H      1.263272   -2.909437   -2.355377
H     -0.270858   -2.415857   -3.085475
H      0.986333   -1.213011   -2.777150
H     -1.897782   -0.976061   -1.769657
H     -0.613828    0.199876   -1.424261
H     -1.947349    1.539815   -0.114114
H     -1.952582    0.877708    2.312795
H     -3.497533    0.085785    2.092532
H     -3.741554    2.370265    3.051072
H     -2.978480    3.073445    1.615764
H     -4.556764    2.270091    1.485913
