41

C     -4.299379    0.144452    2.232166
C     -3.823358    0.300337    0.795652
C     -2.402459   -0.246161    0.615478
C     -1.847122   -0.021224   -0.809339
N     -2.658853   -0.835187   -1.741393
C     -3.267723   -0.217507   -2.532200
O     -3.871483    0.413824   -3.318010
C     -0.376825   -0.505995   -0.927319
C      0.205156   -0.312507   -2.352412
C      1.486015    0.500657   -2.111030
C      2.534193   -0.377546   -1.410405
C      1.955906   -0.560133    0.016141
C      2.953225   -0.119706    1.115101
C      2.358304   -0.265200    2.519314
N      4.127746   -1.014251    1.039514
C      5.164040   -0.467568    1.107139
O      6.194637    0.092673    1.175492
C      0.649427    0.282867   -0.059822
C      1.052859    1.432290   -0.986089
H     -3.650073    0.691967    2.922783
H     -5.315597    0.536628    2.339113
H     -4.308225   -0.908894    2.529987
H     -4.522201   -0.226663    0.137203
H     -3.851180    1.361271    0.521682
H     -2.395899   -1.318240    0.851110
H     -1.758330    0.244490    1.351641
H     -1.898212    1.052148   -1.044049
H     -0.352326   -1.573227   -0.668751
H      0.410567   -1.272053   -2.838332
H     -0.471569    0.257353   -2.998055
H      1.862900    0.993626   -3.009487
H      2.671315   -1.338785   -1.916699
H      3.500281    0.139199   -1.396231
H      1.716501   -1.619618    0.178952
H      3.232036    0.932877    0.962210
H      1.532374    0.432259    2.682691
H      1.989540   -1.282653    2.689900
H      3.115081   -0.058098    3.284297
H      0.269880    0.603218    0.907876
H      1.870495    2.044714   -0.593698
H      0.218337    2.084369   -1.262122
