62

N      7.707935   -4.117529    1.276902
C      6.645755   -3.709465    1.497866
O      5.427261   -3.231820    1.738805
C      5.032882   -2.307764    0.723169
C      5.492765   -0.894319    1.093099
C      4.963362    0.144760    0.110030
C      3.428582    0.099178   -0.008685
C      2.962615    1.148278   -1.041215
C      1.442469    1.235972   -1.292475
C      1.159861    2.265284   -2.407259
C     -0.195634    2.961015   -2.278181
C     -1.264454    2.030690   -1.689149
N     -2.607318    2.658212   -1.717079
C     -2.723379    3.689285   -1.168714
O     -2.827623    4.718297   -0.611217
C     -0.892137    1.509114   -0.272807
C     -1.392795    0.058783   -0.037515
C     -2.919898   -0.156085   -0.087141
C     -3.650357    0.594091    1.038420
C     -5.152471    0.315320    1.026035
C     -5.451516   -1.185115    1.106194
N     -6.901188   -1.384494    0.941469
C     -7.443699   -1.820667    1.885896
O     -7.974865   -2.258514    2.838255
C     -4.731691   -1.937159   -0.017727
C     -3.229964   -1.662589   -0.004222
C      0.637473    1.575227   -0.030505
C      2.959427   -1.322531   -0.355302
C      3.506326   -2.357917    0.623826
H      5.449114   -2.595708   -0.253966
H      5.161156   -0.650472    2.110853
H      6.588145   -0.850971    1.120093
H      5.281612    1.142030    0.436891
H      5.419002   -0.027101   -0.873640
H      3.020168    0.366298    0.973996
H      3.323577    2.133916   -0.717357
H      3.457646    0.941190   -1.999895
H      1.104402    0.261608   -1.665734
H      1.212468    1.749430   -3.374737
H      1.937928    3.038326   -2.437256
H     -0.508069    3.333681   -3.261510
H     -0.074850    3.847391   -1.641608
H     -1.328691    1.167898   -2.366745
H     -1.343582    2.143022    0.499530
H     -1.029912   -0.284668    0.940788
H     -0.922386   -0.599244   -0.779859
H     -3.300983    0.199523   -1.051681
H     -3.499599    1.673850    0.946133
H     -3.236578    0.299278    2.011195
H     -5.592562    0.738347    0.113322
H     -5.627653    0.834676    1.867162
H     -5.086977   -1.567583    2.072203
H     -4.908520   -3.014896    0.083098
H     -5.146311   -1.645446   -0.991656
H     -2.763976   -2.185731   -0.847963
H     -2.793901   -2.084142    0.910592
H      0.900787    0.912747    0.800183
H      0.902358    2.588988    0.299197
H      1.865707   -1.379581   -0.336972
H      3.277442   -1.581668   -1.372973
H      3.190893   -3.363065    0.318049
H      3.064421   -2.199464    1.616541
