33

O      3.916474    2.240894    1.366410
C      3.246062    1.285151    1.235653
N      2.572681    0.335360    1.088344
C      1.749916    0.335376   -0.147346
C      1.892130   -1.041924   -0.806985
C      1.123089   -2.166341   -0.136982
C     -0.336743   -2.227120   -0.557724
C     -1.245866   -1.010731   -0.419371
C     -1.589438   -0.516645    0.989927
C     -2.625812    0.580339    0.672062
C     -2.112677    1.154380   -0.658672
C     -0.781475    0.383114   -0.884924
C      0.289558    0.812967    0.174816
N      0.306153    2.289518    0.401461
C      0.561615    2.964298   -0.525037
O      0.822650    3.611380   -1.469797
C     -0.302631    0.174334    1.472251
H      2.193563    1.026730   -0.881158
H      2.956686   -1.312650   -0.815374
H      1.596452   -0.975006   -1.861734
H      1.582977   -3.114899   -0.446213
H      1.231737   -2.145245    0.950120
H     -0.804770   -3.064192   -0.023198
H     -0.352072   -2.515169   -1.618398
H     -2.172275   -1.294557   -0.942886
H     -1.966287   -1.273033    1.681782
H     -3.624963    0.151041    0.537099
H     -2.686135    1.343235    1.454710
H     -2.823391    0.922202   -1.461865
H     -2.017077    2.241669   -0.627821
H     -0.439924    0.441313   -1.921378
H      0.361326   -0.556441    1.936584
H     -0.521533    0.920653    2.245643
