35

C      2.444668    0.937865    2.422462
C      2.269689   -0.541504    2.104154
C      2.416474   -0.864776    0.601716
N      2.395247   -2.336538    0.469734
C      3.068169   -2.747293   -0.398947
O      3.752887   -3.143769   -1.267457
C      1.317286   -0.220811   -0.232960
C      1.629253    0.790430   -1.153540
C      0.623966    1.386202   -1.923436
C      0.955111    2.423977   -2.856095
N      1.222137    3.268360   -3.605966
C     -0.705226    0.972974   -1.779290
C     -1.042919   -0.036255   -0.865606
C     -2.491637   -0.480987   -0.713887
C     -3.066380   -0.124246    0.673837
C     -3.159723    1.376105    0.920217
N     -2.621365   -1.944265   -0.874950
C     -2.824531   -2.286516   -1.978461
O     -3.035799   -2.612931   -3.087137
C     -0.021363   -0.626733   -0.103131
H      3.408384    1.306772    2.057389
H      1.649977    1.542403    1.975127
H      2.411224    1.094642    3.505424
H      1.297827   -0.879867    2.484418
H      3.028412   -1.104042    2.663733
H      3.392759   -0.470016    0.278918
H      2.661049    1.119571   -1.273113
H     -1.480555    1.443423   -2.383258
H     -3.108897    0.038380   -1.463832
H     -4.075255   -0.548566    0.759617
H     -2.473299   -0.584978    1.473580
H     -3.748958    1.866442    0.138879
H     -3.646952    1.568369    1.881543
H     -2.169810    1.841096    0.951238
H     -0.271846   -1.422918    0.599081
