33

O      4.944511   -1.344990   -0.750586
C      3.950716   -0.718294   -0.743807
N      2.956034   -0.097611   -0.717385
C      2.176821   -0.251165    0.529220
C      1.820420    1.160490    1.012414
C      0.679784    1.763726    0.180644
N      0.437539    3.134501    0.680304
C      0.769418    3.985130   -0.057150
O      1.104221    4.830439   -0.801172
C     -0.588261    0.911318    0.399331
C     -1.783347    1.431301   -0.414161
C     -3.012190    0.583988   -0.103243
C     -2.797415   -0.868267   -0.514603
C     -1.422359   -1.410438   -0.201031
C     -1.210111   -2.789651   -0.342476
C      0.054215   -3.335956   -0.152324
C      1.128209   -2.505590    0.152629
C      0.950180   -1.117513    0.290795
C     -0.340931   -0.566663    0.135047
H      2.776530   -0.716455    1.327604
H      1.517910    1.118972    2.068228
H      2.705169    1.809293    0.973740
H      0.949551    1.757327   -0.886857
H     -0.861497    0.984816    1.463575
H     -2.000409    2.473933   -0.156642
H     -1.565888    1.399476   -1.489354
H     -3.891883    0.986766   -0.617939
H     -3.225661    0.633842    0.972262
H     -2.945199   -0.950689   -1.599234
H     -3.561548   -1.489329   -0.031761
H     -2.035373   -3.445251   -0.612929
H      0.206873   -4.406224   -0.263975
H      2.113970   -2.951233    0.270836
