58

C     -2.589761    3.508561   -1.616599
C     -1.910683    2.191127   -1.955492
C     -2.022552    1.190680   -0.801747
C     -1.344250   -0.137315   -1.153183
C     -1.178530   -1.174280   -0.002121
C     -0.599871   -2.501881   -0.621726
C     -1.528758   -3.305400   -1.534187
C     -2.585970   -1.549571    0.611005
C     -3.154680   -0.684976    1.745764
C     -4.590109   -1.078639    2.069537
C     -0.232070   -0.672015    1.152825
C      1.232096   -0.108758    0.981821
N      1.926760   -0.265810    2.303325
C      1.468537    0.292433    3.229741
O      1.003002    0.858387    4.147909
C      1.254545    1.384004    0.561764
C      2.670340    1.953314    0.434733
C      3.542159    1.132636   -0.525375
C      4.960614    1.710456   -0.555139
C      3.544159   -0.361889   -0.134534
N      4.218746   -1.125056   -1.205814
C      4.985817   -1.926821   -0.823300
O      5.751339   -2.727704   -0.431926
C      2.100735   -0.896828   -0.018209
H     -2.499065    4.208013   -2.453498
H     -3.654766    3.359845   -1.411805
H     -2.131430    3.970636   -0.736364
H     -0.856011    2.381120   -2.185585
H     -2.369237    1.770944   -2.858203
H     -1.584098    1.628613    0.099484
H     -3.085253    1.015667   -0.601878
H     -1.937545   -0.584041   -1.960439
H     -0.364552    0.060048   -1.601039
H      0.285151   -2.288112   -1.221732
H     -0.274802   -3.166186    0.189276
H     -1.870788   -2.718492   -2.390167
H     -0.989952   -4.173725   -1.929296
H     -2.402803   -3.687680   -1.000309
H     -2.524218   -2.568153    1.019435
H     -3.322881   -1.592806   -0.202065
H     -3.134046    0.377834    1.497839
H     -2.554886   -0.819773    2.653061
H     -5.243703   -0.922451    1.205393
H     -4.971349   -0.472095    2.897068
H     -4.652101   -2.131339    2.363329
H     -0.168978   -1.512888    1.861167
H     -0.768811    0.113057    1.699165
H      0.690177    1.999999    1.272311
H      0.767218    1.507421   -0.408437
H      3.142972    2.000746    1.423409
H      2.603430    2.988129    0.076342
H      3.123626    1.232767   -1.536688
H      4.939963    2.774119   -0.815766
H      5.581283    1.202639   -1.300103
H      5.450146    1.610789    0.419592
H      4.060909   -0.478509    0.830061
H      1.659692   -0.834334   -1.017786
H      2.135095   -1.956457    0.265155
