58

C      4.910386    0.377936   -0.644701
C      3.395266    0.177607   -0.793067
C      2.684347    1.466043   -0.349791
C      1.173643    1.394396   -0.581726
C      0.512948    2.701395   -0.131751
C     -1.006597    2.683328   -0.348876
C     -1.592399    4.020626    0.116354
C     -1.640498    1.463550    0.365782
C     -3.161333    1.407199    0.165762
C     -3.780906    0.199591    0.860058
C     -3.179027   -1.148907    0.402932
C     -3.596083   -1.473206   -1.048798
N     -3.647041   -2.230143    1.317465
C     -4.800333   -2.444905    1.355198
O     -5.956691   -2.651792    1.384343
C     -1.621895   -1.087966    0.573141
C     -0.923957   -2.372636    0.095711
C      0.575467   -2.336993    0.370873
C      1.254300   -1.129752   -0.305090
C      0.554534    0.184017    0.137317
C     -0.978065    0.144740   -0.109212
C      2.816747   -1.088895   -0.074073
C      3.449549   -2.374541   -0.664914
N      3.024058   -0.966902    1.395529
C      3.971949   -1.467807    1.871161
O      4.924914   -1.970490    2.340205
H      5.235315    1.250274   -1.223608
H      5.200050    0.554949    0.395319
H      5.476212   -0.476925   -1.023123
H      3.205387    0.055898   -1.869613
H      3.090764    2.316702   -0.912407
H      2.894100    1.667483    0.708744
H      1.002883    1.285003   -1.662353
H      0.951073    3.539172   -0.689313
H      0.731900    2.881884    0.929287
H     -1.196086    2.596073   -1.427542
H     -1.047811    4.860285   -0.329391
H     -2.638633    4.125884   -0.185423
H     -1.535744    4.121459    1.205353
H     -1.452984    1.568710    1.444670
H     -3.633093    2.303614    0.582697
H     -3.402752    1.394012   -0.903589
H     -4.864940    0.215929    0.688934
H     -3.646195    0.311266    1.944938
H     -4.680274   -1.376717   -1.180729
H     -3.125682   -0.804881   -1.775290
H     -3.338264   -2.502504   -1.320962
H     -1.422488   -1.001435    1.653048
H     -1.348743   -3.249080    0.598132
H     -1.076294   -2.516190   -0.980486
H      0.741734   -2.314256    1.454490
H      0.998426   -3.276340    0.001951
H      1.091818   -1.236373   -1.388626
H      0.710666    0.308045    1.219130
H     -1.133463    0.058156   -1.193947
H      3.178671   -2.491573   -1.720102
H      4.542333   -2.369045   -0.608681
H      3.128833   -3.274973   -0.131338
