43

N     -4.415453   -3.938681   -1.931993
C     -3.758383   -3.239652   -1.281667
O     -2.996149   -2.433573   -0.547524
C     -1.984516   -1.850791   -1.364010
C     -1.109744   -0.922999   -0.524938
C      0.070851   -0.325133   -1.325442
C      1.044707    0.159439   -0.226667
C      2.455503   -0.413479   -0.432504
C      3.473448    0.154461    0.559887
C      4.881429   -0.371735    0.276485
N      5.797373    0.212544    1.264158
C      6.911807   -0.129975    1.132879
O      8.024116   -0.481022    0.990498
C      0.343044   -0.323220    1.067518
C     -0.854079    0.609350    1.335142
C     -1.883060    0.179074    0.265947
C     -2.428796    1.339969   -0.572179
C     -3.341359    2.263848    0.241386
N     -3.831984    3.320937   -0.652572
C     -4.540957    4.092496   -0.124546
O     -5.248547    4.859114    0.416026
C     -0.356206   -1.610357    0.624844
H     -1.365459   -2.645818   -1.801791
H     -2.446411   -1.283967   -2.183026
H      0.537816   -1.093568   -1.954371
H     -0.231617    0.489733   -1.989376
H      1.110294    1.254622   -0.248018
H      2.786193   -0.174193   -1.451410
H      2.441384   -1.507190   -0.355306
H      3.475400    1.250150    0.503105
H      3.193722   -0.106933    1.586585
H      5.180905   -0.091072   -0.742211
H      4.884677   -1.467787    0.346490
H      0.996387   -0.428021    1.934797
H     -1.262427    0.425868    2.336070
H     -0.573676    1.665842    1.275862
H     -2.730449   -0.286162    0.788716
H     -1.609570    1.935586   -0.991837
H     -2.996025    0.944129   -1.423228
H     -4.180482    1.684330    0.648983
H     -2.783976    2.698660    1.080995
H     -1.015100   -2.025564    1.395621
H      0.335368   -2.389263    0.287596
