35

O      0.347429    3.210163   -2.523420
C      0.425252    2.038083   -2.566843
N      0.494577    0.865920   -2.618906
C     -0.452181    0.248843   -1.773842
C     -1.642865   -0.225398   -2.334343
C     -2.623088   -0.834949   -1.539545
C     -3.822655   -1.299284   -2.103553
C     -4.789417   -1.903057   -1.307394
C     -4.564439   -2.038797    0.057974
C     -3.378858   -1.565150    0.645142
N     -3.229388   -1.777701    2.038258
C     -3.042595   -0.781055    2.631894
O     -2.884031    0.213074    3.241233
C     -2.379498   -0.970296   -0.157545
N     -1.219999   -0.539558    0.384171
C     -0.266515    0.038943   -0.397473
C      0.951991    0.428561    0.339980
C      0.854933    1.109786    1.564011
C      1.997459    1.484206    2.272823
C      3.265452    1.178119    1.777156
C      3.394654    0.488575    0.573227
O      4.563179    0.113543   -0.026458
C      5.777279    0.444851    0.625228
F      5.853621   -0.135512    1.841762
F      5.913700    1.782049    0.752635
F      6.807212   -0.011533   -0.121971
C      2.240366    0.117464   -0.130739
H     -1.803874   -0.108741   -3.404537
H     -4.009546   -1.197193   -3.171286
H     -5.713327   -2.269855   -1.748363
H     -5.316202   -2.520094    0.680452
H     -0.124466    1.351868    1.976734
H      1.895496    2.012936    3.217926
H      4.123393    1.489867    2.365767
H      2.356950   -0.438680   -1.060155
