26

O     -5.623429    1.057566    0.968208
C     -5.000764    1.033776   -0.028848
N     -4.376458    1.011134   -1.023903
C     -3.027484    0.699827   -0.790701
C     -2.091364    1.715569   -0.572514
C     -0.737287    1.417337   -0.387301
C     -0.296482    0.091347   -0.426491
O      1.010152   -0.298146   -0.266924
C      1.992347    0.716673   -0.039677
C      3.370427    0.092227    0.154976
F      3.790292   -0.437946   -1.027820
F      4.249224    1.090654    0.453874
C      3.375475   -0.972921    1.241588
F      2.931952   -0.454924    2.418479
F      4.641179   -1.416001    1.471810
C     -1.230473   -0.950425   -0.650999
N     -0.867662   -2.311291   -0.761075
C     -0.393782   -2.736111    0.225639
O      0.096955   -3.154246    1.209443
C     -2.581024   -0.624747   -0.852815
H     -2.414949    2.754937   -0.557031
H     -0.058385    2.249148   -0.227315
H      2.033837    1.388448   -0.905370
H      1.737355    1.297589    0.855063
H      2.762396   -1.839460    0.981165
H     -3.292047   -1.420015   -1.068524
