63

C     -2.491910   -2.342727   -2.188632
C     -2.875064   -1.056473   -1.444833
C     -4.374384   -0.813147   -1.659946
C     -2.555289   -1.152231    0.068320
C     -1.228151   -0.459631    0.574133
C     -1.255020    1.073853    0.292853
C     -2.522324    1.885752    0.656724
C     -2.341599    3.334925    0.184781
C     -2.850184    1.883064    2.149359
C      0.022230   -1.135892   -0.105473
C      1.527595   -0.664035    0.104347
C      1.831696   -0.381332    1.618260
C      3.208625    0.181363    2.062522
C      3.221322    0.315667    3.592730
C      4.418023   -0.639996    1.625314
C      1.892092    0.595935   -0.762461
C      2.223880    0.429279   -2.271330
C      1.109135   -0.157269   -3.130460
C      2.624485    1.797169   -2.845015
N      2.425655   -1.747225   -0.403119
C      2.372381   -2.802532    0.107938
O      2.309248   -3.855624    0.624624
N     -1.133577   -0.609514    2.054407
C     -1.279460   -1.677914    2.518766
O     -1.422344   -2.750848    2.974738
H     -1.434073   -2.588593   -2.073959
H     -3.071713   -3.198128   -1.824083
H     -2.689867   -2.239176   -3.261166
H     -2.336376   -0.219811   -1.899947
H     -4.609178   -0.752141   -2.728132
H     -4.692438    0.127081   -1.199870
H     -4.974196   -1.621219   -1.226974
H     -3.392769   -0.740128    0.646192
H     -2.535605   -2.216386    0.340755
H     -1.072400    1.227107   -0.777898
H     -0.417698    1.544626    0.821932
H     -3.383237    1.484069    0.115241
H     -2.152010    3.373023   -0.893261
H     -3.242894    3.924848    0.383023
H     -1.501188    3.817575    0.695348
H     -1.983558    2.181770    2.748482
H     -3.666079    2.580498    2.369462
H     -3.181888    0.896906    2.484697
H     -0.040010   -2.200045    0.158932
H     -0.159140   -1.116038   -1.176791
H      1.107461    0.360316    1.969606
H      1.639494   -1.296375    2.193777
H      3.324667    1.196422    1.665796
H      3.129311   -0.662046    4.078054
H      4.153141    0.777926    3.935870
H      2.393528    0.945247    3.936208
H      4.337960   -1.679115    1.959679
H      5.339290   -0.226878    2.051535
H      4.542367   -0.624158    0.539261
H      2.799055    1.042718   -0.342082
H      1.131905    1.369980   -0.650636
H      3.102150   -0.221382   -2.367936
H      0.160669    0.364163   -2.967256
H      1.353222   -0.076281   -4.195782
H      0.974297   -1.223326   -2.928171
H      2.935969    1.706176   -3.891178
H      1.790014    2.505414   -2.799639
H      3.464753    2.224742   -2.287639
