26

C      1.894935   -4.670378   -0.326830
N      1.632911   -3.530650   -0.263955
C      1.286931   -2.188483   -0.193896
C     -0.055599   -1.840943   -0.333495
C     -0.472633   -0.491914   -0.292873
C     -1.846174   -0.118943   -0.446061
N     -2.831889   -1.122462   -0.632639
C     -3.318138   -1.465953    0.382145
O     -3.771042   -1.800495    1.412790
C     -2.206159    1.248740   -0.490262
C     -3.575672    1.621265   -0.716029
N     -4.684108    1.913209   -0.888801
C     -1.228669    2.233256   -0.325141
C     -1.550721    3.632735   -0.355781
N     -1.784645    4.767579   -0.375768
C      0.108263    1.860341   -0.128406
C      0.520435    0.510714   -0.107778
C      1.891287    0.143776    0.077464
N      2.878849    1.144918    0.252903
C      3.135003    1.322656    1.387022
O      3.354404    1.495464    2.527876
C      2.250692   -1.213836    0.004586
N      3.585721   -1.581311    0.120102
C      4.713535   -1.882044    0.221480
H     -0.776271   -2.642912   -0.497927
H      0.848753    2.655672   -0.010724
