60

C      2.077954    0.237359    3.189665
C      1.231602    0.462138    1.943013
C      1.516448   -0.429460    0.694561
C      3.022335   -0.370693    0.197504
N      3.917935   -0.742091    1.316420
C      5.073898   -0.614144    1.158759
O      6.229538   -0.483353    0.991057
C      3.307961    1.044094   -0.357530
C      2.387857    1.339862   -1.551633
C      2.639880    0.300509   -2.650323
C      2.328500   -1.102060   -2.116242
C      3.223058   -1.416190   -0.927429
C      0.869532   -1.166452   -1.665620
C      0.523953   -0.122131   -0.544634
C     -1.073409   -0.198976   -0.219680
C     -1.937619   -0.382914   -1.525193
C     -3.447686   -0.483220   -1.231516
C     -3.700101   -1.686267   -0.315179
C     -2.917285   -1.509765    0.990191
C     -3.367585   -0.219095    1.685831
C     -3.143621    1.003677    0.767199
N     -3.628400    2.185050    1.515270
C     -3.535087    3.227979    0.985648
O     -3.434298    4.266139    0.444473
C     -3.932930    0.793686   -0.539458
C     -1.634028    1.106937    0.440684
C     -1.413281   -1.423281    0.683173
C      0.912777    1.276971   -1.121257
H      1.590165    0.701982    4.054173
H      2.193291   -0.828098    3.409931
H      3.060464    0.708182    3.103066
H      0.216358    0.260252    2.283088
H      1.274666    1.524856    1.687635
H      1.334699   -1.466140    1.013038
H      3.179970    1.805040    0.421113
H      4.350368    1.129440   -0.691104
H      2.609305    2.340313   -1.941098
H      2.013877    0.518254   -3.524463
H      3.682623    0.352444   -2.987055
H      2.499770   -1.839506   -2.909040
H      4.268143   -1.430845   -1.263863
H      3.011457   -2.425232   -0.549251
H      0.636163   -2.181362   -1.322659
H      0.273331   -0.983730   -2.565586
H     -1.665937   -1.308944   -2.043688
H     -1.757771    0.445193   -2.220991
H     -3.994675   -0.619676   -2.171517
H     -4.772131   -1.779984   -0.102430
H     -3.393802   -2.613045   -0.815677
H     -3.106116   -2.366248    1.647544
H     -4.428734   -0.296437    1.957978
H     -2.818864   -0.090887    2.628365
H     -5.008619    0.726796   -0.330957
H     -3.801730    1.645818   -1.218548
H     -1.105237    1.374735    1.354253
H     -1.484248    1.951829   -0.243564
H     -1.093685   -2.352558    0.196018
H     -0.881947   -1.380959    1.636751
H      0.737664    2.068623   -0.385469
H      0.283286    1.515584   -1.987347
