47

O     -2.469640    3.131422    3.549507
C     -2.156842    2.210791    2.889635
N     -1.838096    1.297361    2.225980
C     -0.851245    1.634664    1.188812
C     -0.505833    0.406001    0.338748
C     -0.534042   -0.961799    1.050513
C     -0.068158   -1.754485   -0.173925
C     -1.172161   -1.375741   -1.199026
C     -2.466192   -2.185776   -1.099359
C     -3.566525   -1.145346   -1.244345
C     -3.039151    0.031349   -0.435878
C     -1.546601    0.082872   -0.795001
C      1.229138   -1.048827   -0.629481
C      2.579839   -1.360952    0.073261
C      2.532156   -1.365782    1.605511
C      2.293814    0.117222    1.944974
C      2.239297    0.791226    0.562402
C      3.328396   -0.043905   -0.150215
C      0.964292    0.460940   -0.305866
C      1.031395    1.344688   -1.596608
N      0.608902    2.716121   -1.275593
C      0.624304    3.442607   -2.197277
O      0.641793    4.160591   -3.126944
H     -1.244319    2.430330    0.542408
H      0.053068    2.026252    1.670418
H      0.083134   -1.039402    1.932843
H     -1.528283   -1.272547    1.387852
H      0.044204   -2.830161   -0.023267
H     -0.800874   -1.410931   -2.230278
H     -2.525809   -2.949726   -1.880940
H     -2.551344   -2.698885   -0.134793
H     -4.529784   -1.506050   -0.872687
H     -3.687542   -0.861557   -2.296443
H     -3.549066    0.964518   -0.695556
H     -3.218259   -0.153029    0.626452
H     -1.458081    0.757828   -1.649793
H      1.380011   -1.201871   -1.706722
H      3.076875   -2.243061   -0.337220
H      3.504185   -1.675257    2.011057
H      1.797960   -2.058080    2.020285
H      3.155724    0.496797    2.509265
H      1.420709    0.307090    2.569766
H      2.463733    1.859730    0.616058
H      3.487494    0.183919   -1.206086
H      4.300762   -0.003788    0.355244
H      0.419142    0.919666   -2.401133
H      2.047522    1.372973   -2.006554
