51

C     -5.167601   -2.195442    1.176886
C     -5.032416   -0.734314    1.615887
C     -5.939219    0.153830    0.747408
N     -5.984874    1.506409    1.325331
C     -6.525962    2.290967    0.640953
O     -7.070016    3.070330   -0.050045
C     -3.564535   -0.284205    1.557654
O     -3.085269   -0.360771    0.212515
C     -1.755843    0.138758    0.074276
C     -1.344132    0.143712   -1.389320
O      0.091128    0.114982   -1.414171
C      0.519757   -0.563326   -0.223726
C     -0.690017   -0.760121    0.678380
O     -0.326115   -0.364795    2.009649
C      1.105507   -0.234924    2.024657
C      1.519183    0.232095    0.624084
C      1.369821    1.757144    0.524258
O      2.881577   -0.165062    0.409021
C      3.400451    0.096173   -0.898048
C      4.821014   -0.480914   -0.984980
C      5.768099    0.219744   -0.004837
C      5.360908   -0.435917   -2.423038
N      5.440661    0.953521   -2.895814
C      5.923926    1.063081   -3.959499
O      6.408798    1.159219   -5.025422
H     -4.890094   -2.329645    0.126001
H     -4.526530   -2.843929    1.783346
H     -6.199721   -2.541315    1.298148
H     -5.363209   -0.662945    2.660325
H     -5.578206    0.173419   -0.290238
H     -6.954035   -0.267199    0.736313
H     -2.961525   -0.935545    2.199898
H     -3.468423    0.744013    1.925030
H     -1.702483    1.155026    0.482758
H     -1.702222    1.033753   -1.915331
H     -1.723153   -0.735441   -1.923704
H      0.935173   -1.533543   -0.521698
H     -1.007644   -1.808750    0.706626
H      1.399680    0.462508    2.815571
H      1.538478   -1.212689    2.269923
H      1.490075    2.111979   -0.504272
H      2.143837    2.255246    1.119476
H      0.395185    2.103152    0.880702
H      2.766403   -0.382108   -1.651340
H      3.420782    1.174778   -1.082009
H      4.775821   -1.535225   -0.679949
H      5.436632    0.078996    1.029288
H      5.820851    1.296776   -0.195288
H      6.780701   -0.189647   -0.085011
H      4.697391   -1.020331   -3.075235
H      6.351404   -0.911507   -2.448999
