21

O     -3.070599    1.712059   -1.527158
C     -2.740616    1.391103   -0.446157
N     -2.416153    1.072276    0.636318
C     -2.357233   -0.387105    0.847449
C     -0.942750   -0.929111    0.648036
C      0.132131   -0.265276    1.473970
O      1.331799   -0.630053    0.787633
C      0.945879   -0.761465   -0.591480
C      1.544649    0.381520   -1.427118
N      3.009821    0.246361   -1.548502
C      3.611150    0.822526   -0.721327
O      4.211543    1.412801    0.098411
O     -0.487376   -0.729050   -0.695087
H     -2.680758   -0.592238    1.874637
H     -3.053615   -0.914668    0.180109
H     -0.940608   -2.011930    0.827784
H      0.068308    0.827671    1.468565
H      0.162247   -0.618562    2.507970
H      1.300998   -1.732905   -0.953294
H      1.255855    1.355119   -1.004808
H      1.115326    0.350927   -2.435952
