46

O     -7.770291    3.095110    2.502741
C     -7.438101    2.126046    1.927154
N     -7.093112    1.161049    1.355914
C     -5.674503    0.836828    1.550494
C     -5.366514   -0.444428    0.775216
C     -3.895708   -0.843777    0.912856
C     -3.600540   -2.137427    0.143725
C     -2.153100   -2.649605    0.272295
C     -1.118273   -1.611091   -0.202392
O      0.138737   -2.276736   -0.357854
C      1.207000   -1.514745   -0.740845
C      1.176431   -0.154146   -1.051714
C      2.350051    0.505702   -1.432736
C      3.558162   -0.192479   -1.488824
O      4.737576    0.391633   -1.889862
C      5.065797    1.602500   -1.323485
C      5.027645    1.824269    0.055583
C      5.408141    3.065332    0.568023
C      5.839698    4.074446   -0.293928
C      5.899238    3.842670   -1.668649
C      5.519416    2.602891   -2.183603
C      3.589663   -1.555205   -1.203617
C      2.416956   -2.210328   -0.823390
N     -1.911994   -2.985409    1.694859
C     -1.244993   -3.936898    1.863765
O     -0.589613   -4.897264    2.033945
H     -5.453511    0.683798    2.615394
H     -5.038218    1.652135    1.180943
H     -5.613928   -0.300943   -0.284114
H     -6.008309   -1.255636    1.141252
H     -3.654122   -0.974283    1.973985
H     -3.267844   -0.029869    0.533177
H     -3.825609   -1.979716   -0.918740
H     -4.282056   -2.923112    0.495158
H     -2.066335   -3.549904   -0.355567
H     -1.432483   -1.202607   -1.170312
H     -1.022330   -0.806682    0.536898
H      0.259297    0.423466   -1.015696
H      2.311632    1.561031   -1.689261
H      4.711807    1.037049    0.734317
H      5.375542    3.242637    1.639885
H      6.139110    5.039509    0.107268
H      6.246557    4.625400   -2.337932
H      5.573329    2.417275   -3.252665
H      4.523520   -2.106095   -1.270738
H      2.446181   -3.272393   -0.591126
