22

O      0.366571    4.101236   -1.222253
C      0.675661    3.146078   -0.614384
N      0.981472    2.191606   -0.005146
C      0.153899    0.992913   -0.292343
F     -0.233382    1.015480   -1.599548
C     -1.092295    0.945606    0.604692
F     -1.845223    2.060528    0.395825
F     -0.720007    0.990036    1.910562
C     -1.915966   -0.300180    0.334285
F     -2.375303   -0.284170   -0.944716
F     -3.019852   -0.313833    1.129131
C     -1.081701   -1.540713    0.573504
F     -0.707034   -1.608721    1.878146
F     -1.820058   -2.658395    0.336546
C      0.146362   -1.526512   -0.318233
F     -0.220325   -1.567502   -1.625800
F      0.892490   -2.645610   -0.107308
C      1.006457   -0.280330   -0.059050
F      1.424294   -0.284133    1.238901
N      2.189630   -0.244208   -0.955165
C      3.128371   -0.809989   -0.537597
O      4.065939   -1.379189   -0.120049
