41

O      6.099390   -2.080107    1.432270
C      5.073936   -1.551835    1.655969
N      4.049686   -1.019582    1.866325
C      3.488080   -0.338510    0.693227
C      2.144660    0.274498    1.095166
C      1.503449    1.021201   -0.077453
C      0.110287    1.619630    0.205309
C      0.206026    2.707522    1.302083
N     -1.002086    3.546248    1.254660
C     -1.037728    4.368998    2.090280
O     -1.060989    5.189255    2.931332
C     -0.984338    0.586466    0.574539
C     -1.342501   -0.473638   -0.472162
C     -0.417975   -1.714174   -0.526778
C     -1.298698   -2.789732   -1.182015
C     -2.620782   -2.051665   -1.427181
C     -2.421447   -1.034999   -2.561439
C     -1.555429    0.053354   -1.908841
C     -2.702771   -1.146567   -0.201270
H      4.165157    0.453411    0.346183
H      3.335378   -1.047640   -0.131550
H      1.485123   -0.520968    1.456336
H      2.301248    0.958896    1.937203
H      2.175508    1.837007   -0.376723
H      1.448314    0.366061   -0.951545
H     -0.205166    2.123504   -0.718475
H      0.316301    2.239879    2.289909
H      1.090548    3.333622    1.121628
H     -0.728385    0.093376    1.520680
H     -1.904412    1.147440    0.788814
H      0.489041   -1.552171   -1.114496
H     -0.121370   -2.041423    0.476006
H     -0.855846   -3.179081   -2.104241
H     -1.442494   -3.628846   -0.491898
H     -3.471982   -2.717723   -1.580698
H     -3.381582   -0.610927   -2.876572
H     -1.938033   -1.473545   -3.440164
H     -2.095559    1.007405   -1.911095
H     -0.613605    0.194824   -2.448798
H     -2.731708   -1.700133    0.743957
H     -3.547247   -0.449329   -0.240389
