54

C      0.350871    4.160347   -0.559340
C     -0.113987    2.716005   -0.790336
C     -1.547558    2.548031   -0.323635
C     -1.996419    1.080560   -0.345375
N     -3.423547    1.059221    0.068996
C     -4.196354    1.058192   -0.814876
O     -4.952386    1.056492   -1.713883
C     -1.115659    0.157452    0.624688
N     -1.111511    0.839353    1.975959
C     -2.098696    0.873720    2.610863
O     -3.072207    0.901923    3.268220
C     -1.824711   -1.281190    0.755771
C     -2.182403   -2.013611   -0.548477
C     -1.181910   -2.282963    1.719078
C      0.460848    0.199080    0.091401
C      1.623292   -0.226742    1.103125
C      1.452642   -0.516644    2.463005
C      2.534052   -0.855533    3.289630
C      3.826591   -0.900055    2.782850
C      4.042900   -0.597214    1.447296
C      2.962502   -0.259808    0.626864
C      0.627303   -0.651693   -1.223394
C      1.087885   -1.988998   -1.156797
C      1.276991   -2.777078   -2.297904
C      1.003634   -2.255909   -3.552773
C      0.548332   -0.949096   -3.659104
C      0.367922   -0.161717   -2.512787
C      0.858373    1.732599   -0.123093
H     -0.304262    4.866564   -1.080664
H      0.344824    4.417612    0.505395
H      1.368211    4.305443   -0.938084
H     -0.091312    2.581394   -1.873075
H     -1.677944    2.979328    0.676639
H     -2.202604    3.141205   -0.976369
H     -1.904503    0.710216   -1.372362
H     -2.809415   -1.090468    1.205773
H     -1.376055   -2.652550   -0.906898
H     -2.487316   -1.347915   -1.356282
H     -3.030457   -2.685827   -0.365284
H     -1.775517   -3.204270    1.760854
H     -1.153254   -1.896099    2.740622
H     -0.175647   -2.569774    1.416072
H      0.487765   -0.485813    2.946481
H      2.357984   -1.077956    4.339562
H      4.660021   -1.161089    3.428613
H      5.049048   -0.619143    1.037408
H      3.181025   -0.026859   -0.415125
H      1.321166   -2.452312   -0.199918
H      1.637090   -3.797685   -2.196455
H      1.146066   -2.862670   -4.442438
H      0.333317   -0.531187   -4.640038
H      0.012963    0.841373   -2.689648
H      1.803496    1.797816   -0.680584
H      1.078518    2.155942    0.869833
