37

C      2.893016   -1.604912    0.500070
C      2.316452   -0.183271    0.454672
N      3.268696    0.659517   -0.303842
C      3.965154    1.332811    0.358977
O      4.656384    2.001720    1.033686
C      0.880745   -0.082782   -0.205699
C      0.938837   -0.613234   -1.655764
C      0.445991    1.408137   -0.204357
C     -1.037960    1.639485   -0.519125
N     -1.314108    3.079672   -0.347869
C     -1.816351    3.594515   -1.275022
O     -2.320670    4.097687   -2.209462
C     -1.920893    0.866324    0.465757
C     -1.636793   -0.647636    0.481070
C     -2.373942   -1.270067    1.690272
C     -2.209224   -1.325436   -0.777696
C     -0.118793   -0.916560    0.654099
H      3.871757   -1.602447    0.993654
H      2.249147   -2.286320    1.062516
H      3.045113   -2.015544   -0.503053
H      2.231368    0.169045    1.495104
H      0.051491   -0.358503   -2.235800
H      1.784338   -0.187235   -2.206664
H      1.043489   -1.702966   -1.680404
H      1.049636    1.979374   -0.922119
H      0.663465    1.844176    0.781371
H     -1.250994    1.313512   -1.545471
H     -1.764838    1.276363    1.473984
H     -2.978482    1.049710    0.233131
H     -3.455091   -1.101719    1.626173
H     -2.029815   -0.835245    2.635612
H     -2.205186   -2.351810    1.740942
H     -1.930474   -2.384401   -0.816978
H     -1.879131   -0.858390   -1.705391
H     -3.304783   -1.275361   -0.782737
H      0.068467   -1.988346    0.507636
H      0.123982   -0.719863    1.708726
