66

O      2.915583    5.920463   -1.282954
C      2.340420    4.963725   -0.916472
N      1.775079    4.004161   -0.547419
C      2.623648    3.069272    0.197238
C      1.836231    1.825398    0.673620
C      0.792412    2.156713    1.749963
C     -0.524754    2.706382    1.211464
C     -1.188555    1.817185    0.123010
C     -2.302162    2.661097   -0.567193
N     -3.347908    3.028876    0.400658
C     -4.176858    3.729966   -0.043870
O     -5.002792    4.430425   -0.499958
C     -1.778024    0.537831    0.813063
C     -2.506189   -0.520146   -0.058514
C     -2.315694   -1.917388    0.575248
C     -3.017165   -3.014072   -0.220918
C     -4.502132   -2.719583   -0.385929
C     -4.727480   -1.341894   -0.994901
C     -4.015387   -0.245485   -0.202519
C     -0.124913    1.494073   -0.966897
C      1.260705    0.986400   -0.497052
C      1.231845   -0.532796   -0.181124
C      2.453681   -1.323417   -0.712323
C      3.776929   -0.890421   -0.056596
C      4.856292   -1.953759   -0.220641
C      4.471703   -3.256320    0.482749
C      2.960276   -3.458189    0.598513
C      2.217797   -2.847058   -0.583613
H      3.062783    3.567077    1.073435
H      3.458389    2.732695   -0.434024
H      2.594560    1.222247    1.185811
H      0.589779    1.251780    2.335066
H      1.212076    2.874902    2.465515
H     -0.353035    3.714093    0.816015
H     -1.211581    2.841834    2.057143
H     -1.856312    3.573543   -0.991240
H     -2.725881    2.103824   -1.412299
H     -2.457530    0.846024    1.619595
H     -0.958605    0.034416    1.334642
H     -2.063002   -0.548947   -1.059083
H     -2.701475   -1.913021    1.603108
H     -1.249440   -2.161431    0.640881
H     -2.548059   -3.105655   -1.208247
H     -2.886996   -3.977300    0.285167
H     -4.963812   -3.485084   -1.019562
H     -4.996657   -2.772465    0.591796
H     -4.364940   -1.335543   -2.030304
H     -5.801834   -1.128625   -1.032469
H     -4.475618   -0.163426    0.790403
H     -4.197156    0.701045   -0.713270
H     -0.535458    0.803358   -1.712500
H      0.057006    2.412543   -1.540911
H      1.927584    1.108018   -1.361995
H      1.126100   -0.708136    0.895528
H      0.349562   -0.970681   -0.660055
H      2.526267   -1.114445   -1.789040
H      4.119332    0.051562   -0.499763
H      3.632863   -0.709265    1.015201
H      5.811461   -1.590955    0.175555
H      5.014324   -2.147177   -1.289099
H      4.919677   -4.096194   -0.062044
H      4.906853   -3.278448    1.489224
H      2.738983   -4.528962    0.672803
H      2.598713   -3.000293    1.527772
H      2.569418   -3.335303   -1.502398
H      1.149075   -3.079045   -0.510243
