46

C     -4.860830    0.253109    0.620084
C     -3.452499   -0.317934    0.462724
C     -3.329121   -1.096118   -0.848494
C     -1.942410   -1.713459   -0.970116
C     -0.808267   -0.670609   -0.882944
C     -0.962787    0.279827    0.319842
C     -2.408054    0.800709    0.493651
C      0.049532    1.447939    0.239958
N     -0.438652    2.426102   -0.769012
C     -0.415513    3.545920   -0.416370
O     -0.386317    4.662902   -0.053177
C      1.483387    1.063338   -0.190163
C      2.528158    1.170100    0.958259
C      3.918226    1.390272    0.331595
C      4.210124    0.038255   -0.330563
C      2.981962   -0.813426    0.050774
C      2.656226   -0.268042    1.445068
C      1.750121   -0.350299   -0.780631
C      0.576246   -1.361380   -0.838256
N      0.618187   -2.283392    0.320859
C      0.813102   -3.409837    0.051995
O      1.009424   -4.533767   -0.228255
H     -4.954276    0.800440    1.563953
H     -5.606297   -0.549070    0.622893
H     -5.107015    0.940781   -0.196163
H     -3.267400   -0.999082    1.303625
H     -4.082106   -1.892422   -0.885491
H     -3.517634   -0.437601   -1.705668
H     -1.846512   -2.462082   -0.175538
H     -1.867670   -2.254968   -1.920904
H     -0.857049   -0.072016   -1.803653
H     -0.731115   -0.286903    1.232390
H     -2.658015    1.515267   -0.299902
H     -2.479886    1.348275    1.441998
H      0.075610    1.920419    1.233819
H      1.794573    1.788724   -0.957095
H      2.291386    1.908805    1.726813
H      4.664189    1.599232    1.107211
H      3.938413    2.216275   -0.386084
H      5.127118   -0.393054    0.086762
H      4.339437    0.127401   -1.413728
H      3.196705   -1.882025   -0.005151
H      3.474011   -0.409856    2.160247
H      1.731354   -0.648735    1.884154
H      2.061111   -0.207899   -1.825932
H      0.690820   -1.930116   -1.775382
