28

O     -2.883959    4.108986    0.353399
C     -2.306005    3.101879    0.531664
N     -1.722136    2.097336    0.696515
C     -0.829170    1.733041   -0.415520
C     -0.184271    0.332281   -0.187777
C     -1.268185   -0.778529   -0.318455
N     -2.219842   -0.726814    0.803904
C     -3.181694   -1.381511    0.650374
O     -4.138361   -2.042264    0.482755
C      0.546748    0.287781    1.181646
C      1.425723   -0.953020    1.363764
C      2.445031   -1.100376    0.237390
C      1.774676   -1.088558   -1.126774
F      2.733375   -1.127145   -2.089362
F      1.059456   -2.235398   -1.271185
C      0.879096    0.145322   -1.300939
F      1.685890    1.252001   -1.306063
F      0.264143    0.132110   -2.513643
H     -1.379740    1.733125   -1.367361
H     -0.043680    2.497310   -0.495127
H     -1.792093   -0.662675   -1.278432
H     -0.815937   -1.774128   -0.320012
H     -0.167267    0.337556    2.011859
H      1.185045    1.176575    1.279020
H      1.953717   -0.884846    2.322033
H      0.799033   -1.850763    1.416390
H      3.183175   -0.291203    0.292870
H      2.997234   -2.038071    0.367065
