34

C      3.497623   -1.686048   -0.324934
C      2.044597   -1.310533   -0.189300
C      1.113351   -2.342039   -0.064684
C     -0.240724   -2.061274    0.060988
C     -0.725580   -0.738669    0.078851
C     -2.243195   -0.571484    0.205135
C     -2.949535   -1.100519   -1.052929
N     -2.793854   -1.314354    1.359524
C     -2.757862   -0.716309    2.368102
O     -2.728870   -0.109942    3.374407
C      0.205177    0.336110   -0.021371
C     -0.233154    1.807984    0.054861
C     -0.932137    2.257848   -1.232378
N     -1.111789    2.096125    1.207977
C     -0.534014    2.430150    2.173903
O      0.061914    2.782924    3.123042
C      1.599339    0.034286   -0.191087
C      2.614359    1.147801   -0.349405
H      4.094085   -1.194182    0.450193
H      3.870494   -1.408388   -1.315869
H      3.648974   -2.764773   -0.207777
H      1.434358   -3.381710   -0.065423
H     -0.931416   -2.898829    0.154721
H     -2.534906    0.478126    0.278600
H     -2.820564   -2.181647   -1.175627
H     -4.027253   -0.911369   -0.991432
H     -2.570016   -0.611170   -1.956316
H      0.644740    2.459529    0.137520
H     -1.161281    3.328502   -1.185548
H     -1.877141    1.737990   -1.408133
H     -0.292069    2.087553   -2.105043
H      3.602347    0.794110   -0.653198
H      2.734623    1.682276    0.598341
H      2.299381    1.841926   -1.135711
