59

C      7.422435   -0.878295    0.368945
C      6.173064   -0.208549    0.950372
C      6.528619    1.140130    1.578065
C      5.097145   -0.030495   -0.112417
N      5.506787    0.570151   -1.263155
C      4.594657    0.721198   -2.243950
C      3.285073    0.294350   -2.141061
F      2.458466    0.481524   -3.179007
C      2.836763   -0.319577   -0.965141
C      1.398476   -0.828303   -0.863743
C      1.101451   -1.856997   -1.964338
C      0.402328    0.356450   -0.851800
C     -1.079669   -0.032051   -0.753608
C     -2.009107    1.202559   -0.862803
C     -3.275324    0.665390   -0.275835
C     -3.017311   -0.468917    0.501723
N     -3.942966   -1.178204    1.169981
C     -5.193128   -0.710518    1.018031
C     -5.549628    0.415863    0.269562
C     -4.570313    1.156056   -0.379671
N     -4.879247    2.286021   -1.152389
C     -4.836614    3.273112   -0.517145
O     -4.795081    4.264429    0.114100
C     -7.023353    0.656266    0.348277
C     -7.528110   -0.709594    0.837381
C     -6.399225   -1.317206    1.678801
C     -1.537187   -0.787280    0.524566
C     -0.930002   -0.301606    1.836560
C      3.759370   -0.452827    0.101980
N      3.361761   -1.043781    1.321675
C      3.048913   -0.234525    2.114607
O      2.734063    0.577967    2.903423
H      7.171249   -1.839960   -0.092246
H      7.903417   -0.256472   -0.394352
H      8.159870   -1.066084    1.156912
H      5.812115   -0.869232    1.746148
H      6.943793    1.834012    0.838378
H      7.271679    1.012909    2.372608
H      5.645281    1.615285    2.018480
H      4.949723    1.201909   -3.149821
H      1.281023   -1.373510    0.077980
H      0.169081   -2.392386   -1.757627
H      1.897169   -2.608297   -2.024874
H      1.002619   -1.391098   -2.949848
H      0.527884    0.948403   -1.767859
H      0.661187    1.035867   -0.028992
H     -1.323984   -0.671317   -1.616091
H     -1.644072    2.046230   -0.267502
H     -2.133098    1.507856   -1.906252
H     -7.238848    1.441549    1.080159
H     -7.460585    0.915496   -0.619966
H     -7.716515   -1.355320   -0.031768
H     -8.468628   -0.633313    1.391787
H     -6.456828   -0.986875    2.720749
H     -6.394046   -2.409144    1.629574
H     -1.378922   -1.865165    0.409449
H      0.132673   -0.545145    1.893505
H     -1.036824    0.781462    1.963664
H     -1.419517   -0.780400    2.692375
