43

C     -3.176853    3.992104    0.017372
C     -2.427331    2.737120   -0.401200
C     -1.501652    2.242934    0.712687
C     -0.724994    1.007187    0.302989
C     -1.380117   -0.232223    0.357508
C     -0.731090   -1.431437    0.021638
C     -1.513738   -2.742786    0.059551
C     -1.854854   -3.138122    1.498764
C     -2.779658   -2.688270   -0.804181
C      0.640681   -1.390794   -0.325438
N      1.334087   -2.584072   -0.625850
C      1.791203   -3.081969    0.335672
O      2.249056   -3.585931    1.294461
C      1.305972   -0.137854   -0.433990
C      2.773025   -0.086230   -0.840340
C      3.703167    0.040297    0.369081
C      5.163188    0.061240   -0.055503
C      0.613357    1.066827   -0.138975
N      1.283081    2.307943   -0.210240
C      1.130970    2.833690   -1.250151
O      0.982211    3.365506   -2.288388
H     -2.481476    4.805644    0.247447
H     -3.792492    3.804334    0.902817
H     -3.835830    4.326926   -0.789817
H     -1.852640    2.949650   -1.309781
H     -3.153647    1.958466   -0.663702
H     -2.091590    2.005989    1.608233
H     -0.819238    3.042425    1.023829
H     -2.422374   -0.256600    0.674664
H     -0.903959   -3.549131   -0.362811
H     -2.524067   -2.412584    1.974045
H     -2.351358   -4.114209    1.522728
H     -0.949871   -3.207681    2.112288
H     -2.539916   -2.388396   -1.830379
H     -3.520508   -1.983580   -0.412313
H     -3.255991   -3.674040   -0.845979
H      2.937964    0.748060   -1.532407
H      3.040413   -0.974147   -1.425479
H      3.544381   -0.794059    1.061580
H      3.482426    0.957014    0.928031
H      5.366291    0.907568   -0.719411
H      5.811548    0.154115    0.821374
H      5.432224   -0.860925   -0.580427
