36

O     -6.101928    2.543642    0.038757
C     -5.718292    1.510780   -0.372606
N     -5.337524    0.478310   -0.783615
C     -4.000191    0.238939   -0.430629
C     -2.960368    0.611429   -1.289240
C     -1.627490    0.347813   -0.956212
C     -1.302791   -0.304605    0.244811
C      0.137654   -0.629651    0.641551
C      1.192752    0.356856    0.134058
C      1.319464    1.601456    0.778571
C      2.252013    2.546907    0.340901
C      3.090885    2.271465   -0.743703
N      4.004971    3.232430   -1.203232
C      5.050305    3.125921   -0.677842
O      6.097585    3.024723   -0.152450
C      2.949451    1.048947   -1.408531
C      2.016230    0.100578   -0.975064
N      0.487444   -2.032118    0.364697
C      1.333553   -2.802318    1.124783
C      1.373937   -4.022448    0.493415
N      0.577458   -4.018057   -0.620240
C      0.051501   -2.814653   -0.669634
C     -2.354550   -0.705752    1.087979
C     -3.685406   -0.441638    0.750234
H     -3.186558    1.108040   -2.230554
H     -0.852552    0.656698   -1.655545
H      0.179121   -0.564063    1.740443
H      0.681525    1.851143    1.625521
H      2.318875    3.506760    0.848498
H      3.568501    0.828442   -2.275850
H      1.949155   -0.836341   -1.525603
H      1.826003   -2.429211    2.011925
H      1.935358   -4.902442    0.780073
H     -0.637197   -2.469013   -1.430115
H     -2.147527   -1.242003    2.013342
H     -4.481366   -0.776965    1.411744
