47

O      6.069015    3.874033   -0.598382
C      4.959694    3.711118   -0.953614
N      3.853403    3.552501   -1.315511
C      3.290960    2.385799   -0.773897
C      3.315710    1.187955   -1.498395
C      2.719466    0.031961   -0.984754
C      2.072339    0.053145    0.258607
C      1.416214   -1.145829    0.783762
C      2.026773   -1.907972    1.794719
C      1.421139   -3.066909    2.310103
C      0.184541   -3.500444    1.829414
C     -0.434415   -2.759615    0.836256
C      0.173147   -1.586954    0.323051
C     -0.727911   -0.972535   -0.756175
C     -1.128593    0.468125   -0.493016
C     -0.810481    1.460993   -1.432357
C     -1.113412    2.801609   -1.182153
C     -1.732081    3.180544    0.014515
N     -2.027581    4.529420    0.269857
C     -1.136190    5.066929    0.814626
O     -0.244259    5.605120    1.361254
C     -2.095056    2.187926    0.931810
C     -1.791013    0.846673    0.685604
C     -1.906622   -1.942793   -0.772613
C     -3.042949   -1.904425   -1.567895
C     -3.990172   -2.917226   -1.410381
C     -3.791307   -3.946297   -0.475373
C     -2.640670   -3.981435    0.319112
C     -1.699499   -2.976469    0.164927
C      2.043048    1.257090    0.978058
C      2.633990    2.414253    0.461651
H      3.797870    1.152290   -2.472357
H      2.755417   -0.888157   -1.564943
H      2.995076   -1.603870    2.190058
H      1.925212   -3.632768    3.090323
H     -0.272693   -4.398389    2.231479
H     -0.209199   -1.068267   -1.719392
H     -0.302123    1.201142   -2.358641
H     -0.850275    3.554716   -1.921051
H     -2.609242    2.457726    1.851020
H     -2.064985    0.097556    1.426664
H     -3.198180   -1.107845   -2.288534
H     -4.892983   -2.910308   -2.016927
H     -4.542462   -4.725701   -0.369018
H     -2.498381   -4.782809    1.036161
H      1.530343    1.305956    1.937096
H      2.569374    3.342440    1.025251
