37

C     -2.512576   -0.687104    0.252232
C     -1.543627   -0.020075   -0.739012
C     -0.418284   -0.946729   -1.266112
C     -0.952127   -2.235413   -1.904582
C      0.698678   -1.227679   -0.226320
N      0.151393   -2.054931    0.871140
C      0.624135   -3.124822    0.971138
O      1.106323   -4.192603    1.058651
C      1.306983    0.094670    0.365267
C      2.283466   -0.261817    1.516110
C      2.165930    0.780519   -0.728696
C      0.166649    1.043677    0.888837
C      0.700437    2.388055    1.421760
C     -0.929357    1.294377   -0.187372
N     -2.004052    2.128643    0.395481
C     -2.402502    2.978412   -0.309129
O     -2.790401    3.824336   -1.026482
H     -3.381902   -0.045196    0.433034
H     -2.054426   -0.885487    1.223581
H     -2.908412   -1.627952   -0.139686
H     -2.160457    0.254051   -1.607685
H      0.054155   -0.402986   -2.096027
H     -0.138678   -2.783684   -2.392350
H     -1.412807   -2.909152   -1.177056
H     -1.700046   -2.004023   -2.670485
H      1.506191   -1.768308   -0.746788
H      2.980134   -1.050447    1.208492
H      2.893263    0.596553    1.816730
H      1.750126   -0.610632    2.406842
H      2.710538    1.644215   -0.332305
H      1.572448    1.131874   -1.576251
H      2.918082    0.087235   -1.123606
H     -0.309702    0.550554    1.747453
H      1.484319    2.247707    2.170467
H      1.098877    3.013069    0.616507
H     -0.094744    2.956963    1.915418
H     -0.458027    1.824130   -1.029196
