46

C     -3.476389    0.217424    3.386023
O     -3.715210   -0.950507    2.609520
C     -2.869348   -1.179375    1.560025
C     -3.173538   -2.308278    0.801047
C     -2.395713   -2.661228   -0.305385
C     -1.287641   -1.889037   -0.666291
O     -0.518514   -2.137124   -1.774840
C     -0.599266   -3.435548   -2.346297
C     -0.961457   -0.743246    0.098345
N      0.184534    0.089340   -0.214219
C      1.485455   -0.513625   -0.374941
C      2.384940   -0.048111   -1.349471
C      3.644595   -0.636071   -1.508693
C      4.044525   -1.696109   -0.688149
N      5.296448   -2.305962   -0.866853
C      6.125971   -1.797026   -0.209050
O      6.961000   -1.291608    0.447183
C      3.146007   -2.184824    0.266135
C      1.885526   -1.598198    0.424622
C      0.008331    1.516515   -0.328800
C     -1.141953    2.053522   -0.932192
C     -1.324290    3.436952   -1.034016
C     -0.370925    4.320812   -0.517450
N     -0.540091    5.708815   -0.642246
C     -1.116415    6.161096    0.276016
O     -1.693192    6.617419    1.193863
C      0.786924    3.795910    0.066662
C      0.970568    2.412290    0.167409
C     -1.767807   -0.402024    1.207941
H     -3.557587    1.122437    2.774757
H     -4.248606    0.267818    4.159669
H     -2.504854    0.164143    3.888248
H     -4.034661   -2.917339    1.067608
H     -2.695628   -3.533742   -0.875948
H     -0.439291   -4.215918   -1.594586
H      0.198091   -3.522631   -3.090665
H     -1.553563   -3.574406   -2.864054
H      2.095741    0.759258   -2.018395
H      4.309028   -0.267569   -2.286425
H      3.422014   -3.029764    0.892193
H      1.217875   -1.993644    1.186199
H     -1.897485    1.393397   -1.353354
H     -2.214802    3.821242   -1.525751
H      1.554302    4.464183    0.450265
H      1.868813    2.039167    0.654186
H     -1.492465    0.471174    1.790157
