66

C      1.527113   -3.451390    1.717507
C      0.921779   -2.968440    0.380208
C      1.274600   -4.041551   -0.677340
C     -0.613268   -2.886401    0.522683
C     -1.312116   -1.563824    0.069444
C     -2.778405   -1.710966    0.567302
C     -1.356716   -1.434075   -1.477730
N     -1.950279   -2.640551   -2.087237
C     -2.005493   -2.602115   -3.258640
O     -2.051935   -2.548450   -4.431437
C     -0.565575   -0.369595    0.806792
C     -1.272497    1.044795    0.942858
C     -2.146914    1.132127    2.228698
C     -3.158159    2.282760    2.224427
C     -2.665605    3.468126    1.410594
C     -2.417479    3.083912   -0.047123
C     -2.067145    1.601558   -0.243759
C      1.042923   -0.315961    0.577155
N      1.677149   -0.309376    1.943610
C      1.522844    0.632670    2.626644
O      1.367962    1.581505    3.302137
C      1.642568    0.918456   -0.250573
C      3.196030    1.008633   -0.192073
C      3.710814    2.292999   -0.847515
C      3.236591    2.427358   -2.289357
C      1.724638    2.270103   -2.398776
C      1.254942    0.971047   -1.742776
C      1.573629   -1.641177   -0.059698
H      1.269501   -2.785100    2.546246
H      1.154820   -4.449004    1.979276
H      2.619798   -3.512918    1.662517
H      0.851234   -3.789860   -1.655955
H      2.359960   -4.135779   -0.798075
H      0.886536   -5.026189   -0.392148
H     -0.863107   -3.036894    1.583907
H     -1.083816   -3.746678    0.027994
H     -3.409992   -0.870220    0.278889
H     -2.821238   -1.813166    1.656783
H     -3.250961   -2.612275    0.158803
H     -0.361845   -1.285096   -1.895666
H     -1.960942   -0.566953   -1.762348
H     -0.622721   -0.729922    1.848668
H     -0.481042    1.775654    1.129183
H     -2.696319    0.207073    2.415370
H     -1.478299    1.255497    3.090228
H     -4.108755    1.928404    1.805933
H     -3.367757    2.590597    3.255142
H     -3.388255    4.290554    1.457595
H     -1.734806    3.846359    1.851825
H     -3.305308    3.315702   -0.648143
H     -1.609042    3.710829   -0.443212
H     -1.527841    1.519047   -1.183481
H     -3.003231    1.051766   -0.373690
H      1.281939    1.844187    0.210674
H      3.646681    0.148690   -0.701577
H      3.560106    0.992739    0.839400
H      3.367145    3.158723   -0.267937
H      4.806324    2.306227   -0.819160
H      3.726595    1.662545   -2.904590
H      3.539081    3.400914   -2.690943
H      1.226566    3.124100   -1.923669
H      1.431835    2.276021   -3.454851
H      1.705820    0.137874   -2.293325
H      0.182265    0.885324   -1.878218
H      2.655683   -1.719675    0.118803
H      1.491390   -1.581275   -1.146278
