40

C      3.804722   -2.385936    0.178003
C      3.535938   -0.867568    0.318661
C      4.027294   -0.459706    1.728159
N      4.411085   -0.136413   -0.637382
C      4.197774   -0.322843   -1.776713
O      3.998577   -0.519813   -2.917880
C      2.058772   -0.461325    0.196284
C      1.017769   -1.384923    0.126447
C     -0.315732   -0.962287    0.019263
C     -0.693226    0.402596   -0.024090
C     -2.044798    0.894783   -0.136235
C     -3.278963   -0.044507   -0.216806
C     -3.483953   -0.704575    1.169178
C     -4.628239    0.664280   -0.534723
N     -3.126188   -1.149776   -1.201443
C     -2.955616   -0.822736   -2.316468
O     -2.806471   -0.499409   -3.436269
C     -2.245253    2.292541   -0.160713
C     -1.181927    3.186081   -0.088427
C      0.115747    2.708943    0.014568
C      0.373941    1.335045    0.048897
C      1.708147    0.899221    0.156715
H      3.320583   -2.957620    0.978249
H      4.879286   -2.600328    0.226620
H      3.440958   -2.778364   -0.778831
H      5.075817   -0.744565    1.877166
H      3.971013    0.624065    1.883805
H      3.432152   -0.939847    2.513869
H      1.202414   -2.455703    0.152902
H     -1.061713   -1.750543   -0.029745
H     -2.636006   -1.321783    1.478642
H     -3.636563    0.051185    1.948978
H     -4.360735   -1.363617    1.163894
H     -4.922081    1.358192    0.261375
H     -5.439145   -0.067568   -0.638927
H     -4.583569    1.227063   -1.474566
H     -3.237864    2.727688   -0.236504
H     -1.366856    4.257054   -0.113441
H      0.931135    3.427630    0.067761
H      2.501772    1.645385    0.209727
