35

C     -3.635490    1.778236   -0.792342
C     -3.192597    0.426094   -1.338168
C     -2.019949   -0.232401   -0.576945
C     -0.769095    0.671885   -0.570642
C      0.564079   -0.003333   -0.231865
C      1.052282   -1.046482   -1.267546
C      2.119477   -1.836459   -0.493491
C      2.146003   -1.136141    0.874930
C      0.665180   -0.795147    1.074484
C      2.799592    0.251338    0.699665
N      3.037191    0.835982    2.027854
C      4.001767    1.500298    2.096260
O      4.969986    2.163941    2.150590
C      1.701660    1.040308   -0.042319
N     -2.431114   -0.479907    0.819096
C     -2.899484   -1.538674    1.011926
O     -3.364563   -2.602860    1.190368
H     -4.495718    2.145407   -1.361689
H     -3.935494    1.708455    0.257497
H     -2.841337    2.525634   -0.877856
H     -4.056357   -0.250374   -1.326223
H     -2.909867    0.549480   -2.390892
H     -1.784543   -1.171678   -1.094589
H     -0.933102    1.493628    0.139292
H     -0.661803    1.135443   -1.560442
H      0.257785   -1.727261   -1.587635
H      1.469232   -0.576273   -2.164599
H      1.807966   -2.881854   -0.386338
H      3.090741   -1.821438   -0.997781
H      2.589159   -1.743922    1.667365
H      0.472832   -0.190363    1.966775
H      0.039784   -1.692988    1.098895
H      3.720175    0.181843    0.103145
H      1.360085    1.901483    0.544811
H      2.065539    1.418102   -1.004493
