35

O      5.885670   -1.861921    0.682279
C      5.107631   -1.567151   -0.149072
N      4.331926   -1.280632   -0.983329
C      3.532353   -0.192265   -0.598016
C      3.915662    1.117065   -0.908361
C      3.108639    2.194364   -0.543892
C      1.899455    1.971486    0.115954
C      1.474434    0.668456    0.405484
C      0.156441    0.419396    1.107672
C     -1.100028    0.195094    0.201983
N     -1.342204    1.352888   -0.703366
C     -1.547280    2.393775   -0.203038
O     -1.740576    3.429647    0.316789
C     -2.332314   -0.057871    1.115467
C     -3.591698   -0.448996    0.342751
C     -3.346990   -1.662487   -0.544138
C     -2.166056   -1.439265   -1.479009
C     -0.900877   -1.039928   -0.715631
C      2.303720   -0.405692    0.044251
H      4.848545    1.301377   -1.435429
H      3.420458    3.209719   -0.776757
H      1.294000    2.829638    0.400437
H      0.284681   -0.452590    1.764704
H     -0.026617    1.256899    1.795368
H     -2.097051   -0.867237    1.819982
H     -2.551903    0.824082    1.729659
H     -3.933182    0.393552   -0.270033
H     -4.398944   -0.671153    1.050146
H     -4.246978   -1.879935   -1.130211
H     -3.154950   -2.541469    0.083463
H     -1.972841   -2.355607   -2.048676
H     -2.419087   -0.662583   -2.210796
H     -0.112632   -0.847603   -1.453298
H     -0.575004   -1.896785   -0.111668
H      1.993594   -1.426268    0.259629
