46

C     -1.413514    3.361172    2.078221
C     -1.004067    2.488374    0.907425
O     -1.746590    1.274610    0.979514
C     -1.354131    0.257073    0.020593
N     -0.830654    0.808572   -1.249863
C     -1.098521    0.185182   -2.204909
O     -1.365479   -0.405373   -3.185121
O     -2.472830   -0.653512   -0.103274
C     -3.726586   -0.007540   -0.309146
C     -4.739413   -1.064651   -0.704231
C     -0.166356   -0.579472    0.741152
N     -0.671777   -1.278845    1.965221
C     -0.639319   -0.622215    2.935627
O     -0.582478    0.038490    3.905939
C      0.524543   -1.602542   -0.170312
C     -0.168951   -2.777949   -0.524667
C      0.400560   -3.723161   -1.376105
C      1.675378   -3.515820   -1.887043
C      2.382391   -2.364455   -1.541861
C      1.828941   -1.395783   -0.683288
C      2.635187   -0.211566   -0.356732
C      3.348445   -0.143120    0.850413
C      4.100842    0.988541    1.171018
C      4.155495    2.062817    0.285422
C      3.463159    2.005096   -0.922415
C      2.710261    0.873527   -1.242972
H     -2.490302    3.558850    2.054183
H     -0.878681    4.314858    2.059381
H     -1.203104    2.857337    3.027205
H      0.071800    2.294625    0.954656
H     -1.237930    3.008850   -0.027199
H     -3.653505    0.747455   -1.098744
H     -4.050857    0.474449    0.619079
H     -4.426486   -1.573025   -1.622305
H     -4.819967   -1.831684    0.073150
H     -5.725328   -0.619815   -0.865291
H      0.585485    0.151660    1.059797
H     -1.170162   -2.961946   -0.135799
H     -0.154485   -4.619793   -1.639904
H      2.122539   -4.250255   -2.551656
H      3.383794   -2.222456   -1.945735
H      3.318014   -0.977335    1.549136
H      4.646762    1.028821    2.110279
H      4.744422    2.942251    0.533648
H      3.512998    2.838820   -1.618173
H      2.180456    0.840883   -2.192772
