15

O     -3.872856    0.953989    0.145348
C     -3.170888    0.015411    0.219288
N     -2.471685   -0.922335    0.302119
C     -1.175319   -0.762116   -0.386646
F     -1.369180   -0.135977   -1.578168
C     -0.139021   -0.019594    0.461648
F     -0.598269    1.220267    0.791455
F      0.032023   -0.682884    1.643665
C      1.194880    0.077693   -0.287128
F      1.617218   -1.172950   -0.624482
F      1.042996    0.757538   -1.452971
N      2.218021    0.729804    0.527824
C      3.236570    0.813529   -0.041923
O      4.263329    0.897353   -0.605873
H     -0.807818   -1.769729   -0.610208
