32

C     -0.712731   -1.748740   -1.305483
C     -1.437013   -0.749236   -0.432449
C     -2.673137   -1.134627    0.141061
Cl    -3.345295   -2.715089   -0.096293
C     -3.410095   -0.265810    0.946965
C     -2.942720    1.017284    1.205462
N     -3.663523    1.888785    2.037883
C     -4.415179    2.556318    1.429470
O     -5.167549    3.226153    0.823084
C     -1.694706    1.394350    0.694861
C     -0.904394    0.537197   -0.115653
C      0.488530    1.064247   -0.608686
Cl     0.232460    1.402137   -2.386539
N      0.804675    2.375755    0.022871
C      1.829674    2.854728   -0.285077
O      2.853301    3.344139   -0.589667
C      1.624053    0.053995   -0.317100
C      1.759675   -0.466362    0.988816
C      2.787102   -1.354883    1.311955
C      3.712510   -1.729710    0.343840
C      3.616525   -1.210367   -0.943708
C      2.588691   -0.321122   -1.270924
H     -1.412089   -2.289238   -1.951967
H     -0.010784   -1.287581   -1.998280
H     -0.173410   -2.469455   -0.682935
H     -4.353506   -0.591775    1.378909
H     -1.340097    2.391882    0.953014
H      1.059807   -0.181052    1.773511
H      2.867541   -1.749915    2.321849
H      4.514931   -2.418995    0.594451
H      4.348820   -1.492244   -1.697025
H      2.567930    0.069230   -2.286215
