36

O     -5.983858   -2.603983    0.539837
C     -5.546310   -1.562820    0.867016
N     -5.107054   -0.524236    1.197113
C     -4.291710    0.041947    0.202075
C     -4.833818    0.938962   -0.727371
C     -4.025149    1.545804   -1.694712
N     -4.591205    2.406817   -2.649721
C     -4.491411    3.535337   -2.338309
O     -4.395616    4.665772   -2.029004
C     -2.663438    1.222889   -1.735800
C     -2.100641    0.349414   -0.801418
O     -0.756472    0.148614   -0.949576
C     -0.118963   -0.736801   -0.027366
C      1.363274   -0.798782   -0.389177
C      2.127344   -1.749929    0.533638
C      3.610690   -1.866852    0.175043
C      4.369144   -0.621881    0.457890
C      4.937657    0.345790   -0.343276
C      5.527635    1.289749    0.531266
C      5.284512    0.835658    1.806041
O      4.582580   -0.325868    1.771268
C     -2.914944   -0.228052    0.172668
H     -5.896942    1.167557   -0.697045
H     -2.026848    1.660085   -2.502620
H     -0.229120   -0.357595    0.995674
H     -0.557680   -1.738709   -0.106423
H      1.782219    0.213376   -0.339623
H      1.469355   -1.118027   -1.433564
H      2.014495   -1.423944    1.575228
H      1.677076   -2.748006    0.463452
H      4.052941   -2.684753    0.757029
H      3.719915   -2.139842   -0.881288
H      4.924947    0.367452   -1.424051
H      6.064774    2.189476    0.266836
H      5.530869    1.202849    2.792435
H     -2.508248   -0.897469    0.924229
