47

O      1.454701   -4.231727    1.311414
C      1.040377   -3.806710    0.297641
N      0.608804   -3.379625   -0.706327
C     -0.098342   -2.078451   -0.567898
C     -1.560732   -2.304478   -1.020670
C     -2.450961   -1.103095   -0.811230
C     -2.937098   -0.380525   -1.905424
C     -3.733472    0.749852   -1.709308
C     -4.066157    1.179311   -0.416046
C     -4.863114    2.315898   -0.204185
C     -5.187834    2.728142    1.089090
C     -4.721358    2.009433    2.185671
C     -3.928235    0.877336    1.991552
C     -3.590990    0.450267    0.696758
C     -2.790957   -0.685215    0.484376
C      0.620644   -0.974815   -1.415314
N      0.784726   -1.445244   -2.810454
C      0.585641   -0.619809   -3.619202
O      0.362862    0.207023   -4.423590
C      1.949039   -0.585827   -0.772328
C      3.140402   -1.255158   -1.078213
C      4.338403   -0.894884   -0.456866
C      4.375231    0.142091    0.486585
C      5.572341    0.514205    1.119364
C      5.592105    1.548160    2.056629
C      4.416534    2.222431    2.372732
C      3.218508    1.863944    1.752563
C      3.181622    0.825634    0.807434
C      1.983329    0.451742    0.175400
H     -0.110449   -1.749550    0.483558
H     -1.992255   -3.144987   -0.459862
H     -1.588400   -2.619251   -2.071872
H     -2.701484   -0.686105   -2.922948
H     -4.094876    1.295034   -2.578917
H     -5.238893    2.889366   -1.048684
H     -5.806515    3.609222    1.238630
H     -4.975584    2.328297    3.193218
H     -3.575529    0.328744    2.862052
H     -2.431747   -1.251658    1.342130
H     -0.008009   -0.071450   -1.397519
H      3.148013   -2.069308   -1.800871
H      5.246862   -1.434759   -0.715504
H      6.501133   -0.001298    0.885476
H      6.525756    1.825855    2.538760
H      4.430686    3.028158    3.102043
H      2.311062    2.404037    2.013202
H      1.064208    0.979747    0.426955
