42

O     -6.233655    3.448526   -2.688083
C     -5.285023    3.136433   -2.069878
N     -4.341078    2.810863   -1.451942
C     -4.178926    1.354990   -1.329392
C     -2.863933    1.103444   -0.568364
C     -2.371737   -0.352045   -0.454408
C     -1.135723   -0.560475    0.484149
N      0.143097    0.066848    0.081927
C      1.281893   -0.826417   -0.244864
C      2.251713   -1.329396    0.871774
C      3.082451   -0.271640    1.626469
C      4.164986    0.421550    0.784129
N      4.702058    1.530024    1.581505
C      5.444580    2.225865    0.995732
O      6.187027    2.908318    0.393641
N      3.219797   -2.345998    0.302759
O      3.283775   -2.451133   -0.929314
O      3.958859   -2.945834    1.095733
N      1.423543   -2.143001    1.833689
O      0.941106   -3.209212    1.427236
O      1.159204   -1.635805    2.932002
N      0.387709    1.375604    0.408888
O      1.466583    1.829585    0.037844
O     -0.494865    1.958639    1.031926
N     -3.510356   -1.211888    0.041823
O     -4.387951   -1.549143   -0.764619
O     -3.544537   -1.464131    1.253506
N     -1.993525   -0.946103   -1.788027
O     -1.942445   -0.191298   -2.767724
O     -1.646985   -2.136153   -1.809188
H     -5.024307    0.942534   -0.764859
H     -4.161057    0.888286   -2.320690
H     -3.003039    1.506950    0.444329
H     -2.083900    1.719193   -1.035179
H     -1.384445   -0.240356    1.506376
H     -0.973987   -1.640480    0.594464
H      1.873627   -0.335400   -1.030731
H      0.859021   -1.694567   -0.771049
H      3.587929   -0.727024    2.491641
H      2.419793    0.484025    2.066152
H      4.969411   -0.287401    0.550171
H      3.753313    0.783220   -0.164524
