59

O      7.534463    2.717788   -0.910336
C      7.149169    2.638052    0.461208
C      6.037299    1.607746    0.639228
O      4.890360    2.083981   -0.074336
C      3.764795    1.309962   -0.024649
C      3.639266    0.081840    0.618148
C      2.420859   -0.611488    0.589948
C      1.290539   -0.088898   -0.066349
C     -0.057130   -0.866178   -0.141062
C     -1.320365    0.041646   -0.062277
C     -2.489483   -0.236662   -0.795132
C     -3.632407    0.568404   -0.687563
C     -3.642897    1.663990    0.170808
O     -4.685509    2.525876    0.367314
C     -5.895084    2.255063   -0.350402
C     -6.909061    3.327849    0.037332
O     -6.461108    4.611106   -0.397126
C     -2.504913    1.941223    0.925651
C     -1.364794    1.138313    0.820925
C     -0.196678   -1.966484    0.951954
C     -0.287523   -1.811045    2.332672
C     -0.408271   -2.953660    3.125376
C     -0.438077   -4.229206    2.542243
C     -0.348252   -4.384158    1.155912
C     -0.228674   -3.250698    0.365744
C     -0.118939   -3.125760   -1.069747
C     -0.104948   -4.104842   -2.051890
C      0.013166   -3.712812   -3.388438
C      0.115881   -2.356669   -3.732330
C      0.101657   -1.368982   -2.746052
C     -0.017583   -1.760367   -1.415124
C      1.450870    1.140190   -0.735882
C      2.666272    1.831127   -0.705308
H      6.706358    2.824697   -1.416000
H      6.815417    3.633567    0.770447
H      8.030883    2.360254    1.045370
H      5.805792    1.506305    1.705384
H      6.359975    0.649448    0.215907
H      4.469266   -0.378660    1.143595
H      2.381564   -1.581154    1.082834
H     -2.540542   -1.097494   -1.459268
H     -4.495815    0.300565   -1.287430
H     -6.287582    1.270062   -0.074232
H     -5.702083    2.311358   -1.428027
H     -7.878050    3.130945   -0.429703
H     -7.038720    3.371833    1.123299
H     -5.542939    4.696944   -0.077102
H     -2.503262    2.786357    1.609717
H     -0.506104    1.383511    1.443530
H     -0.263876   -0.828211    2.791727
H     -0.482350   -2.854907    4.205962
H     -0.534392   -5.107116    3.176930
H     -0.373852   -5.376189    0.717502
H     -0.181660   -5.157135   -1.799424
H      0.028404   -4.467346   -4.171564
H      0.210237   -2.073019   -4.778087
H      0.180590   -0.322238   -3.020705
H      0.625927    1.578585   -1.294874
H      2.753915    2.782791   -1.223866
