40

O      4.384435    2.052919    2.840147
C      3.377630    1.409215    2.184761
C      3.636510    0.394342    1.273556
C      2.572748   -0.241361    0.621303
C      1.236977    0.121848    0.874906
C      0.021667   -0.553524    0.168689
C     -0.682413    0.524061   -0.703795
C     -0.040567    1.020838   -1.858460
C     -0.632397    1.999986   -2.660946
C     -1.870407    2.515439   -2.314323
O     -2.414580    3.468900   -3.121696
C     -2.520432    2.074641   -1.170326
C     -1.924581    1.093363   -0.368226
C      0.454375   -1.761885   -0.734777
C     -0.719765   -2.575556   -1.281299
C     -1.549833   -3.155224   -0.146672
C     -2.024610   -2.064907    0.800727
C     -0.876037   -1.176991    1.296681
C      1.015381    1.166296    1.798304
C      2.075486    1.801391    2.449899
H      5.231525    1.685049    2.540647
H      4.652791    0.083750    1.052623
H      2.823362   -1.021874   -0.091104
H      0.946728    0.663694   -2.141826
H     -0.119727    2.363474   -3.546709
H     -3.266854    3.741674   -2.745099
H     -3.483157    2.482278   -0.878708
H     -2.457984    0.798402    0.530234
H      1.077710   -2.451398   -0.147394
H      1.077227   -1.444069   -1.578460
H     -1.348525   -1.955278   -1.930113
H     -0.336276   -3.393668   -1.902042
H     -0.950589   -3.886576    0.409658
H     -2.411919   -3.695369   -0.553826
H     -2.787763   -1.462905    0.297430
H     -2.519601   -2.526363    1.663478
H     -1.293199   -0.408711    1.958422
H     -0.240181   -1.798343    1.945133
H      0.005716    1.509048    2.013288
H      1.881129    2.603394    3.155917
