39

C     -3.750155    1.812500    2.521242
C     -3.065010    1.002094    1.457799
C     -2.051180    1.576614    0.679415
C     -1.399593    0.834916   -0.314452
C     -0.308800    1.465933   -1.152041
C      1.050566    0.821984   -0.987664
C      1.707953    0.848880    0.251547
C      2.970157    0.258615    0.421614
C      3.623322    0.310820    1.772645
C      3.571302   -0.362480   -0.682534
O      4.799745   -0.961368   -0.592944
C      2.937739   -0.397870   -1.932637
C      3.592721   -1.065069   -3.108621
C      1.677342    0.198108   -2.074119
C     -1.781831   -0.498192   -0.527147
C     -2.793125   -1.099042    0.238855
C     -3.155507   -2.531682   -0.027331
C     -3.424682   -0.333548    1.229527
O     -4.417873   -0.851482    2.017614
H     -3.596826    1.355273    3.504105
H     -3.356284    2.833400    2.565072
H     -4.823156    1.880059    2.314562
H     -1.766127    2.612564    0.851726
H     -0.209389    2.532890   -0.912984
H     -0.625746    1.431659   -2.202658
H      1.220892    1.332139    1.097426
H      3.782276   -0.702327    2.155646
H      3.005302    0.845850    2.501533
H      4.583389    0.833081    1.709504
H      5.128073   -0.888667    0.315389
H      2.969844   -0.998680   -4.006902
H      4.550147   -0.583897   -3.333167
H      3.759244   -2.126450   -2.898076
H      1.179234    0.173600   -3.041293
H     -1.274775   -1.076393   -1.298419
H     -2.560908   -2.955517   -0.843603
H     -4.209276   -2.609112   -0.313772
H     -2.972854   -3.140255    0.864130
H     -4.566150   -1.778945    1.781013
