24

O      4.916368   -0.018681    0.053796
C      3.550732    0.001463    0.016995
C      2.891653   -1.202952    0.225448
C      1.494770   -1.242063    0.198643
C      0.739433   -0.079020   -0.035702
C     -0.731848   -0.125716   -0.062145
C     -1.410829   -1.023739   -0.905151
C     -2.807391   -1.071524   -0.934523
C     -3.542596   -0.221079   -0.119249
O     -4.904157   -0.310924   -0.188539
C     -2.892650    0.677433    0.725334
Br    -3.880320    1.842783    1.845768
C     -1.496741    0.726125    0.754538
C      1.428002    1.129351   -0.243982
C      2.824292    1.167748   -0.217824
Br     3.707631    2.818572   -0.506612
H      5.225118    0.890914   -0.110544
H      3.460610   -2.109918    0.411021
H      0.995493   -2.193454    0.374972
H     -0.851600   -1.690642   -1.559381
H     -3.316912   -1.768927   -1.593883
H     -5.270737    0.340459    0.436775
H     -0.996831    1.421954    1.425292
H      0.868508    2.041837   -0.439775
