72

C     -4.453617   -3.041446    0.051990
C     -3.574079   -2.430266   -1.060466
C     -2.654690   -3.557687   -1.583459
C     -4.472290   -1.993614   -2.238188
C     -2.813173   -1.209809   -0.508442
C     -1.415774   -1.137011   -0.489705
C     -0.737554   -0.015707    0.017911
C      0.737789   -0.008011   -0.012416
C      1.434883   -0.779346    0.933143
C      2.833314   -0.810045    0.975835
C      3.614759   -1.649362    2.004478
C      4.499397   -0.722886    2.866764
C      4.510560   -2.670291    1.269680
C      2.714597   -2.449668    2.973549
C      3.526472   -0.028777    0.025643
C      2.884483    0.766564   -0.949132
C      3.703215    1.601838   -1.963099
C      5.238917    1.464062   -1.791148
C      3.389185    3.106188   -1.801056
C      3.394174    1.152026   -3.408794
C      1.475402    0.753446   -0.943510
O      0.815406    1.518672   -1.871874
C     -1.493520    1.063212    0.523164
O     -0.852198    2.170770    1.018190
C     -2.902608    1.050791    0.528623
C     -3.741437    2.230890    1.076224
C     -3.430288    2.467746    2.571197
C     -5.273489    2.002556    0.988978
C     -3.455214    3.516812    0.268500
C     -3.525150   -0.103867    0.005069
H     -3.847564   -3.333110    0.917973
H     -4.977450   -3.935911   -0.305039
H     -5.219610   -2.343533    0.407087
H     -3.242166   -4.402259   -1.963344
H     -2.004804   -3.948448   -0.791766
H     -2.020042   -3.211424   -2.407553
H     -5.238224   -1.272863   -1.931909
H     -4.997194   -2.851729   -2.674127
H     -3.879758   -1.525817   -3.033398
H     -0.813044   -1.955293   -0.878107
H      0.846056   -1.355127    1.644114
H      5.252920   -0.195610    2.271678
H      3.894658    0.035385    3.378235
H      5.038495   -1.292203    3.633039
H      5.264724   -2.184923    0.640735
H      3.913927   -3.324122    0.622508
H      5.049693   -3.306919    1.981000
H      2.075681   -3.160667    2.436808
H      2.069923   -1.788707    3.564588
H      3.316285   -3.030276    3.683202
H      4.612176   -0.054002    0.061369
H      5.567565    1.803013   -0.801634
H      5.776173    2.071666   -2.529761
H      5.570467    0.428297   -1.930087
H      3.564949    3.435101   -0.769930
H      2.354872    3.356141   -2.052814
H      4.024003    3.714212   -2.456648
H      4.029855    1.679410   -4.130100
H      3.572655    0.077223   -3.532156
H      2.360333    1.348779   -3.705595
H     -0.144340    1.380617   -1.797365
H      0.110305    2.032223    1.007665
H     -4.078967    3.246251    2.990300
H     -2.401656    2.794359    2.746897
H     -3.588980    1.553215    3.154911
H     -5.585990    1.127016    1.570192
H     -5.825377    2.862549    1.387985
H     -5.604149    1.866142   -0.047404
H     -4.104300    4.338870    0.593143
H     -3.632626    3.355982   -0.801524
H     -2.426933    3.871475    0.380370
H     -4.610017   -0.162767   -0.011188
