52

O      7.754293    2.598913   -0.285516
C      6.353931    2.829669   -0.224356
C      5.576516    1.583678   -0.637525
C      5.820431    0.409838    0.316301
C      5.116513   -0.880600   -0.114817
C      3.589099   -0.789398   -0.060499
C      2.944891   -2.140895   -0.381578
C      1.415514   -2.083219   -0.455181
C      0.757937   -1.744561    0.885219
C     -0.765442   -1.907524    0.870484
C     -1.472035   -0.925519   -0.066710
C     -2.993999   -1.054886    0.040611
C     -3.700528   -0.073005   -0.896459
C     -5.223811   -0.232261   -0.908179
C     -5.925406   -0.008312    0.435175
C     -5.665139    1.348323    1.099631
C     -6.049694    2.561033    0.258469
O     -7.436600    2.554055   -0.045987
H      7.969026    2.340690   -1.198047
H      6.100216    3.127169    0.797898
H      6.115829    3.666166   -0.889121
H      5.876979    1.287280   -1.649592
H      4.510863    1.833499   -0.664969
H      5.498616    0.683363    1.328521
H      6.896313    0.204292    0.372582
H      5.449548   -1.688455    0.548741
H      5.436307   -1.152601   -1.128093
H      3.285126   -0.456973    0.938178
H      3.231475   -0.043108   -0.778240
H      3.320342   -2.495809   -1.349486
H      3.248839   -2.883622    0.366074
H      1.121555   -1.351352   -1.216061
H      1.052947   -3.060595   -0.796577
H      1.004866   -0.717982    1.178762
H      1.164436   -2.404326    1.661589
H     -1.022756   -2.936555    0.591418
H     -1.134565   -1.756531    1.892584
H     -1.173005    0.100009    0.181400
H     -1.168849   -1.111854   -1.103021
H     -3.293341   -2.080317   -0.207458
H     -3.296806   -0.868714    1.077053
H     -3.336396   -0.230719   -1.919572
H     -3.430679    0.955197   -0.629942
H     -5.640677    0.454766   -1.654155
H     -5.470696   -1.241936   -1.260247
H     -7.004681   -0.136366    0.286090
H     -5.631031   -0.799611    1.135028
H     -6.245906    1.372791    2.030407
H     -4.610458    1.427673    1.385404
H     -5.480847    2.613374   -0.674613
H     -5.840906    3.476451    0.821288
H     -7.598155    1.829378   -0.673154
