36

O     -5.205453   -2.078205   -1.349204
C     -4.866279   -1.036153   -0.536910
C     -5.638781   -0.826225    0.601197
C     -5.338666    0.234148    1.456413
C     -4.260928    1.073182    1.171198
C     -3.477685    0.839678    0.038977
O     -2.449221    1.723950   -0.199994
C     -1.229256    1.192537   -0.552099
C     -0.631352    0.144132    0.153480
C      0.623883   -0.327101   -0.236223
C      1.289053    0.274201   -1.308821
O      2.512855   -0.162803   -1.762724
C      3.496699   -0.372921   -0.822150
C      4.241476   -1.548303   -0.939196
C      5.274352   -1.809771   -0.038281
C      5.568853   -0.888807    0.967179
C      4.835921    0.290250    1.060738
O      5.168364    1.165588    2.052705
C      3.804014    0.564559    0.168348
C      0.690767    1.320900   -2.012039
C     -0.563861    1.791607   -1.622801
C     -3.789369   -0.206549   -0.834328
H     -4.584875   -2.104692   -2.096200
H     -6.477278   -1.482811    0.816554
H     -5.946108    0.407558    2.340637
H     -4.028793    1.904199    1.831691
H     -1.133312   -0.309822    1.003669
H      1.073413   -1.158877    0.299435
H      4.014131   -2.260478   -1.727771
H      5.851424   -2.726865   -0.120946
H      6.372569   -1.085423    1.671411
H      4.578116    1.935329    1.998607
H      3.245976    1.492398    0.230369
H      1.204786    1.774063   -2.855318
H     -1.025746    2.617010   -2.157651
H     -3.199691   -0.359484   -1.731563
