24

O      4.882376    0.038844    0.605802
C      3.527599   -0.009073    0.428781
C      2.799156   -1.117479    0.842326
F      3.439704   -2.142693    1.423155
C      1.418674   -1.163118    0.660386
F      0.740086   -2.241154    1.082659
C      0.730795   -0.099984    0.059583
C     -0.721041   -0.146341   -0.135334
C     -1.302985   -1.027264   -1.059050
F     -0.516741   -1.837330   -1.785500
C     -2.683977   -1.072636   -1.249593
F     -3.200876   -1.926497   -2.144736
C     -3.516229   -0.235093   -0.517083
O     -4.869611   -0.281145   -0.704936
C     -2.959590    0.643937    0.403609
F     -3.766208    1.447431    1.112478
C     -1.580011    0.688371    0.592557
F     -1.072511    1.537984    1.498955
C      1.484406    1.010130   -0.349872
F      0.867636    2.046458   -0.939567
C      2.866609    1.057119   -0.168731
F      3.551348    2.135062   -0.577040
H      5.164605   -0.792268    1.032936
H     -5.283216    0.374558   -0.111785
