28

O     -3.991249    0.794081   -1.439022
C     -3.347734   -0.370270   -0.904449
C     -2.199317   -0.006061    0.037092
F     -1.292642    0.747346   -0.637975
F     -2.690036    0.790005    1.024730
C     -1.533761   -1.242397    0.617896
F     -1.013038   -2.005218   -0.381861
F     -2.501308   -2.029726    1.187317
C     -0.475165   -0.943547    1.667920
F     -1.087240   -0.360432    2.747975
F      0.000955   -2.136885    2.145856
C      0.709686   -0.073309    1.269907
F      0.290717    1.194473    1.007667
F      1.529687    0.052579    2.356989
C      1.508324   -0.612453    0.099130
F      1.796329   -1.927819    0.307921
F      0.747668   -0.578367   -1.030874
C      2.801595    0.156917   -0.147370
F      3.479768   -0.424743   -1.186541
F      3.630491    0.059622    0.925509
C      2.607843    1.630868   -0.510562
O      3.836625    2.246186   -0.923142
H     -4.181243    1.397033   -0.695685
H     -4.115241   -0.948291   -0.380779
H     -2.982390   -0.954393   -1.754239
H      1.903323    1.736556   -1.340941
H      2.246524    2.207776    0.343821
H      4.320829    1.600469   -1.473103
