42

C     -3.107718   -0.357392   -1.468704
C     -2.628325   -0.316287   -0.020857
C     -3.693878   -0.968037    0.873516
C     -1.266704   -1.018565    0.231284
C      0.044977   -0.478681   -0.457824
C      0.108927   -1.008668   -1.915416
C      0.061184    1.064487   -0.340140
C      0.016185    1.914810   -1.458318
C      0.032247    3.304576   -1.306113
C      0.095730    3.862436   -0.037285
O      0.110102    5.221890    0.061023
C      0.144645    3.053434    1.089333
C      0.127704    1.664594    0.936603
C      1.331640   -1.081336    0.202889
C      2.589932   -0.480816   -0.026582
C      3.762368   -1.002155    0.528537
C      3.695227   -2.144319    1.313234
O      4.810880   -2.689495    1.875176
C      2.479842   -2.771599    1.543152
C      1.307275   -2.249089    0.987647
H     -4.152807   -0.036577   -1.544575
H     -2.531274    0.326695   -2.095785
H     -3.037373   -1.367285   -1.885470
H     -2.562610    0.733559    0.286296
H     -3.407229   -0.909627    1.928963
H     -3.836100   -2.023429    0.616910
H     -4.658169   -0.459758    0.765889
H     -1.112815   -0.986113    1.320174
H     -1.387002   -2.082843   -0.016799
H      0.091679   -2.105692   -1.937906
H      1.029879   -0.695586   -2.423665
H     -0.718007   -0.665590   -2.537845
H     -0.034112    1.521109   -2.469361
H     -0.005136    3.949192   -2.179857
H      0.149816    5.461561    1.001250
H      0.198280    3.475966    2.087300
H      0.174667    1.042965    1.829493
H      2.668207    0.410602   -0.647130
H      4.706763   -0.504792    0.333103
H      5.576523   -2.146576    1.626028
H      2.441277   -3.671548    2.150564
H      0.383300   -2.786021    1.181268
