32

O     -3.348186   -1.553303    1.125987
C     -2.617530   -0.703171    0.173292
C     -1.138052   -0.663664    0.588140
C     -0.680706   -1.366558    1.713091
C      0.661147   -1.328921    2.086776
C      1.578861   -0.587804    1.345230
C      1.173573    0.133679    0.210927
C      2.184634    0.952296   -0.609062
O      1.471485    1.590150   -1.724258
C      3.320954    0.087901   -1.168479
F      4.107448    0.814778   -2.002188
F      4.123450   -0.438646   -0.220379
F      2.843539   -0.944966   -1.905685
C      2.877870    2.034039    0.227960
F      3.649680    2.825283   -0.559590
F      3.671979    1.544481    1.202571
F      1.978104    2.856198    0.821843
C     -0.190958    0.080261   -0.147949
C     -2.815490   -1.257157   -1.242621
F     -2.253342   -2.483266   -1.381299
F     -4.136868   -1.416655   -1.510804
F     -2.303662   -0.473512   -2.213609
C     -3.259095    0.689280    0.154037
F     -2.755800    1.510933   -0.789602
F     -4.595217    0.594618   -0.067814
F     -3.120015    1.318762    1.346923
H     -4.284447   -1.562904    0.841879
H     -1.364217   -1.958373    2.320883
H      0.991962   -1.882446    2.963325
H      2.615702   -0.592123    1.680464
H      2.131022    2.104771   -2.232120
H     -0.517824    0.637114   -1.027866
