49

C     -5.082681    0.091280    0.203011
C     -3.835520    0.638395   -0.520941
C     -3.492134    2.013554    0.088962
C     -4.117499    0.804459   -2.031198
O     -5.225536    1.662764   -2.288787
C     -2.653553   -0.355038   -0.341542
O     -2.377418   -0.523629    1.051077
C     -1.324779   -1.455971    1.264664
C     -0.045604   -1.003923    0.561533
C     -0.390466   -0.745370   -0.912212
O     -1.503928    0.140581   -1.023707
C      0.495335    0.284126    1.199326
O      1.768152    0.630025    0.648756
C      2.718674   -0.426430    0.804168
C      4.083000    0.017478    0.208412
C      3.964118    0.256669   -1.311038
C      5.128682   -1.089214    0.448182
C      4.565559    1.310447    0.904665
O      3.765488    2.446203    0.599619
O      2.270355   -1.609850    0.141632
C      1.038725   -2.073785    0.681002
H     -5.392041   -0.869492   -0.223213
H     -4.893391   -0.063059    1.271039
H     -5.930764    0.780234    0.126833
H     -3.266559    1.932751    1.157989
H     -4.326872    2.715812   -0.014836
H     -2.621511    2.461992   -0.401963
H     -3.253984    1.239126   -2.545931
H     -4.325363   -0.162888   -2.502860
H     -6.036826    1.190367   -2.039210
H     -2.937956   -1.325949   -0.771626
H     -1.649303   -2.443743    0.913233
H     -1.169455   -1.538855    2.346195
H      0.446793   -0.291723   -1.453329
H     -0.636590   -1.679157   -1.433596
H     -0.175278    1.134226    1.034535
H      0.607116    0.174181    2.285494
H      2.848432   -0.636950    1.875220
H      3.701888   -0.665171   -1.841969
H      3.198375    1.002257   -1.549621
H      4.914032    0.613745   -1.725100
H      4.848448   -2.024772   -0.048072
H      5.241942   -1.298616    1.517792
H      6.110947   -0.794525    0.061521
H      4.570919    1.186111    1.993439
H      5.590321    1.552268    0.601493
H      2.832074    2.149058    0.577588
H      0.757333   -2.980328    0.133554
H      1.198304   -2.369674    1.725752
