65

C     -0.922137    0.634199   -2.384155
C     -0.644374   -0.799730   -1.860605
C     -1.329791   -1.761264   -2.867065
C     -1.278188   -1.097561   -0.477820
C     -0.981607   -2.308752    0.172513
C     -1.527712   -2.608724    1.418104
C     -2.391369   -1.703060    2.028867
O     -2.908422   -1.999683    3.261407
C     -2.738360   -0.486876    1.417692
C     -3.701926    0.468172    2.125015
C     -5.149752   -0.065656    2.116441
C     -5.897539    0.248935    0.824612
C     -5.927450    1.748891    0.567610
C     -4.520261    2.323399    0.488535
C     -3.662683    1.955894    1.703389
C     -2.159102   -0.204964    0.166987
C      0.896164   -0.949570   -1.808385
C      1.615664   -1.750264   -2.705646
C      3.007027   -1.848381   -2.622377
C      3.704344   -1.145400   -1.640602
O      5.063941   -1.258520   -1.577105
C      3.033453   -0.330496   -0.725020
C      3.728863    0.460779    0.372546
C      4.682205    1.534731   -0.180682
C      5.324536    2.342629    0.946385
C      6.022637    1.439988    1.959672
C      5.076843    0.379319    2.515808
C      4.432443   -0.442966    1.400438
C      1.630854   -0.244611   -0.829003
H     -1.993129    0.806511   -2.545061
H     -0.422580    0.806935   -3.345889
H     -0.563086    1.405854   -1.692794
H     -1.011693   -1.563125   -3.897615
H     -2.420951   -1.647061   -2.841266
H     -1.111144   -2.813779   -2.650985
H     -0.303495   -3.026554   -0.285547
H     -1.264320   -3.547327    1.895083
H     -2.556187   -2.857138    3.549163
H     -3.366989    0.474321    3.173266
H     -5.693725    0.398310    2.950308
H     -5.185514   -1.146068    2.294788
H     -5.426740   -0.268012   -0.019863
H     -6.924245   -0.127669    0.897397
H     -6.483596    2.249494    1.369730
H     -6.462397    1.954328   -0.366489
H     -4.051515    1.978882   -0.437501
H     -4.578157    3.415464    0.407526
H     -4.042580    2.544969    2.550160
H     -2.630576    2.291899    1.547152
H     -2.391471    0.734902   -0.314748
H      1.116782   -2.313718   -3.488753
H      3.529222   -2.479777   -3.335037
H      5.364225   -1.852560   -2.283107
H      2.950119    1.003904    0.928521
H      4.136258    2.213794   -0.847331
H      5.478720    1.082655   -0.782427
H      6.046492    3.051486    0.525397
H      4.554611    2.935869    1.454949
H      6.879963    0.949951    1.481959
H      6.418694    2.047004    2.781547
H      5.625534   -0.285347    3.192628
H      4.293355    0.864330    3.111017
H      3.712012   -1.145087    1.838236
H      5.208858   -1.051789    0.923428
H      1.090942    0.383693   -0.120189
