55

C     -3.793950    2.995749    1.859307
C     -3.348582    1.884078    0.956412
C     -2.248700    1.089743    1.295920
C     -1.816323    0.061406    0.451328
C     -2.491002   -0.221928   -0.741652
C     -3.587654    0.589684   -1.087106
C     -4.003918    1.624642   -0.246524
O     -5.071238    2.405317   -0.592035
C     -2.043149   -1.366420   -1.639445
C     -1.512140   -0.806878   -2.976768
C     -3.221954   -2.315974   -1.958478
C     -0.962639   -2.209240   -0.919374
C      0.009341   -1.353357   -0.089770
C      0.993745   -2.297873    0.620411
C      2.063226   -1.542772    1.446476
C      1.525794   -1.172105    2.845498
C      3.255256   -2.509856    1.638383
C      2.494493   -0.283686    0.708113
C      3.580205    0.490181    1.158732
C      3.981441    1.632714    0.462586
O      5.038249    2.375507    0.909148
C      3.321502    2.039727   -0.696142
C      3.750729    3.266924   -1.443897
C      2.232332    1.282152   -1.138591
C      1.814897    0.145430   -0.437610
O      0.740681   -0.501876   -0.979618
O     -0.732818   -0.636991    0.904074
H     -3.202768    3.025852    2.780669
H     -4.841990    2.857991    2.144494
H     -3.678761    3.961105    1.356066
H     -1.706429    1.273348    2.220712
H     -4.117346    0.411068   -2.017953
H     -5.400380    2.118758   -1.458937
H     -0.755516   -0.029486   -2.835516
H     -1.071663   -1.600842   -3.590339
H     -2.316150   -0.351668   -3.567579
H     -3.697416   -2.683111   -1.041075
H     -4.000242   -1.826470   -2.554182
H     -2.878760   -3.186519   -2.529855
H     -0.416064   -2.813229   -1.655329
H     -1.461152   -2.911024   -0.234717
H      0.456194   -3.001228    1.269647
H      1.501232   -2.896165   -0.150481
H      1.096822   -2.046126    3.348429
H      0.758435   -0.393335    2.807465
H      2.324011   -0.787912    3.491990
H      4.027288   -2.092667    2.294225
H      2.924574   -3.452868    2.089472
H      3.734881   -2.746053    0.680962
H      4.113151    0.197482    2.058315
H      5.372084    1.981516    1.730911
H      4.800297    3.182445   -1.743841
H      3.158334    3.410338   -2.353739
H      3.622764    4.155680   -0.817662
H      1.686746    1.578820   -2.031526
