61

C      7.747641    1.683003   -0.439904
C      6.287769    2.109541   -0.414842
C      5.372760    0.994105   -0.921113
C      3.902106    1.410883   -1.018742
C      3.244197    1.836877    0.297633
C      3.286874    0.801066    1.425751
C      2.675062   -0.567129    1.097366
C      1.186953   -0.487746    0.727159
C      0.449514   -1.849932    0.546591
C      0.416672   -2.624759    1.889022
O     -0.426788   -3.770032    1.833808
C      1.185971   -2.714047   -0.513288
O      0.530738   -3.969458   -0.693520
C     -1.002303   -1.585243    0.017658
C     -1.900429   -0.738060    0.930784
C     -3.352663   -0.652576    0.441349
C     -3.507268    0.114851   -0.874418
C     -4.958886    0.207141   -1.356703
C     -5.847928    1.068807   -0.457203
C     -7.248900    1.224805   -1.050691
C     -8.139452    2.076938   -0.160453
H      8.385317    2.492799   -0.071740
H      8.067077    1.435336   -1.457224
H      7.910761    0.806355    0.195122
H      6.021638    2.384789    0.611229
H      6.164035    3.004049   -1.036036
H      5.704127    0.686717   -1.921126
H      5.473508    0.110985   -0.280058
H      3.817563    2.242789   -1.729465
H      3.333353    0.583018   -1.458503
H      2.201164    2.106200    0.092032
H      3.716035    2.759332    0.656952
H      2.767336    1.220250    2.296801
H      4.326126    0.650893    1.741557
H      3.245614   -1.032114    0.287615
H      2.804630   -1.204016    1.978984
H      1.086022    0.084113   -0.203654
H      0.680305    0.094512    1.506509
H      1.416399   -2.974868    2.166376
H      0.060670   -1.990626    2.707056
H     -0.256738   -4.192288    0.963995
H      2.212636   -2.935158   -0.206832
H      1.217028   -2.199553   -1.480229
H      0.977328   -4.415979   -1.435843
H     -1.510037   -2.538827   -0.173624
H     -0.922306   -1.088116   -0.957370
H     -1.499293    0.276868    1.024626
H     -1.918362   -1.170816    1.936601
H     -3.764521   -1.663145    0.332925
H     -3.935008   -0.156053    1.225529
H     -2.930691   -0.385841   -1.660136
H     -3.090002    1.123375   -0.767990
H     -4.954509    0.634776   -2.367182
H     -5.383104   -0.800638   -1.442778
H     -5.392200    2.057887   -0.327979
H     -5.930106    0.615959    0.536943
H     -7.709375    0.238666   -1.181947
H     -7.184458    1.687764   -2.042262
H     -8.252094    1.624587    0.830013
H     -9.135188    2.175822   -0.603892
H     -7.722323    3.081160   -0.034489
