22

O     -0.883562   -0.314323   -1.919568
C     -0.773654   -0.137946   -0.459300
C     -1.749349    0.944127   -0.012243
F     -3.009672    0.708297   -0.434542
F     -1.796080    1.071101    1.327694
F     -1.394613    2.145527   -0.524444
C     -1.273421   -1.392358    0.251405
F     -0.590407   -2.486796   -0.150370
F     -1.125677   -1.309596    1.586123
F     -2.575420   -1.646296    0.006651
C      0.710962    0.233567   -0.169309
O      1.109237    1.177636   -1.245040
C      1.641023   -0.975049   -0.199662
F      2.935400   -0.574779   -0.191673
F      1.467399   -1.796408    0.849459
F      1.480079   -1.695427   -1.329116
C      0.982853    0.872202    1.191515
F      0.335299    2.050365    1.313639
F      0.620978    0.099956    2.224950
F      2.296321    1.162848    1.334440
H     -0.468801    0.476131   -2.330545
H      2.061104    1.387220   -1.120063
