328
0.000000000000 representative_seed=commercial_ptmg_1800_GFN-FF
O           -9.38341531466279       -6.21783790155793       -4.19612004951462
C           -9.52890593311834       -7.58349211838014       -4.53373816609856
C           -9.12482032173298       -8.50988407250010       -3.39560853717555
C           -9.41428017261959       -9.97977716560776       -3.65850474626597
C           -8.99063817263344      -10.83901933289770       -2.47757616025504
O           -9.60880972200759      -10.44557761095282       -1.25919766348146
C          -10.98606981439823      -10.81398084953737       -1.16313457494297
C          -11.91104244350993       -9.62264909763437       -0.95081817058454
C          -11.61715311905507       -8.86683463190559        0.34405456341617
C          -10.28151518129862       -8.14063408318970        0.32590476195464
O          -10.01809807391713       -7.45695981191706        1.54388281360701
C           -9.02448769328204       -6.44277466387694        1.44426498241171
C           -7.61805651537984       -6.95823695406499        1.12089720265923
C           -7.31486889274606       -7.10965692891507       -0.37203237910774
C           -7.23035068075083       -5.78324463235433       -1.11524342079782
O           -6.96734697871359       -5.96171737640170       -2.50734739525869
C           -6.44127781893841       -4.78616313175284       -3.11856336059238
C           -6.19386181776869       -4.96909479905614       -4.60738980261654
C           -5.58851773268018       -3.73152036619628       -5.26230310917245
C           -5.17430359326642       -3.97763484656941       -6.70616133491549
O           -4.42757275696237       -2.89409358671396       -7.25007527416589
C           -4.23108489456477       -3.02489875465123       -8.65498429092119
C           -3.27908786413354       -1.97219721504137       -9.20135340059034
C           -3.14757164219716       -2.01032759656601      -10.71938375885594
C           -2.21151520720851       -0.92762680320029      -11.23523924557199
O           -0.88666595601260       -1.10087086142908      -10.74791859183908
C           -0.07048647267345        0.05249564570292      -10.90788157210676
C           -0.37964573808814        1.12794678454376       -9.87658868827423
C           -0.34528062985229        0.55101513721202       -8.46917205046687
C           -0.80338960552991        1.51956322151370       -7.39149512367030
O           -0.93390262546869        0.87523556294469       -6.12706698367132
C           -1.44196700567328        1.74843364355719       -5.12278968619394
C           -1.96936069211241        0.98989663773719       -3.91467752024969
C           -2.49579497470442        1.91467812768951       -2.82053648731910
C           -1.36310725013823        2.57892348526633       -2.05397504597892
O           -0.56948053621564        1.61631121656813       -1.37204470695552
C            0.51486178671417        2.20138398784413       -0.65581875533077
C            1.35172229633601        1.14144387413523        0.04133723802226
C            2.48410829525922        1.70286052928401        0.90056235271766
C            2.00642402282330        2.41020416712226        2.15919666954755
O            3.07887712040278        2.97738908129535        2.90926587277515
C            2.64809258744839        3.46813999271909        4.17697096156654
C            3.59773669842116        4.51125804210717        4.74858744516857
C            5.00399001882672        3.96374601557784        4.95721517216096
C            5.10463794689324        3.02681697863945        6.15370996208691
O            4.16815428160420        1.95740331718909        6.09079883889562
C            4.35318754894605        0.97473250436412        7.11123697295346
C            4.28052945306483       -0.44096644345868        6.55859515719564
C            5.36056696648484       -0.70940155265338        5.51280340993317
C            5.13509349795631        0.03739048815799        4.20683862005605
O            6.22121079589940       -0.12305723161332        3.30183674417649
C            5.95699710441589        0.47270870878519        2.03710949763542
C            7.13612948509930        0.34659704822700        1.08546534720788
C            6.87920754071410        0.96752700225162       -0.28756213673135
C            5.67674756195342        0.35817816813586       -0.99705000849636
O            5.54656925390811        0.77333604794694       -2.35339757862026
C            6.38756022339743        0.04946507576442       -3.24940020803507
C            5.65846905767067       -1.08151275391767       -3.96403049218307
C            5.05399872978431       -2.10026852698610       -3.00719859971341
C            4.35357400861927       -3.25414626878763       -3.71024950334119
O            3.75124190049640       -4.17378845785793       -2.79784267222300
C            2.33884096438824       -4.05175715823667       -2.72445100787470
C            1.88472440743222       -2.76048729276008       -2.06491587217658
C            2.39955937786240       -2.63465987349348       -0.62955821112849
C            1.58346095014909       -3.44310219359938        0.36948821282515
O            1.99854330485431       -3.28213759989363        1.72085317592388
C            1.98274953280168       -1.92730760467374        2.15686069744663
C            1.68006363558778       -1.79698592382362        3.64013162987083
C            0.34291106203299       -2.42190847364167        4.01235017150000
C           -0.81471534700850       -1.81616175300682        3.23009768039185
O           -0.81854543182858       -0.39586121436338        3.29746410994268
C           -1.75787007759735        0.18565122977662        2.39799617980451
C           -1.75917650337367        1.70289850844737        2.47618856706163
C           -2.63944429572492        2.37089537786651        1.42497124824123
C           -4.12367197208709        2.11544067099688        1.63761771615001
O           -4.48206466150372        0.74380600325985        1.58460519812143
C           -4.41161437424313        0.19592741327329        0.27277668505889
C           -5.00063220007436       -1.20532400917224        0.21268324234293
C           -4.94358198237641       -1.82770908482329       -1.18191237909686
C           -3.52756807444251       -2.13609578116859       -1.64586778725267
O           -3.49493475584279       -2.72392070244210       -2.94371931091896
C           -2.16070760922140       -2.95696554502291       -3.38487057515850
C           -2.09101076821304       -3.46911017408911       -4.81747253555897
C           -0.66030740442394       -3.70517540320108       -5.29612996573788
C            0.13920200228510       -2.41854580378099       -5.44049807903405
O            1.51377778441111       -2.66059283924549       -5.72408710340112
C            2.16105730554588       -1.54046205355554       -6.31074624538654
C            2.05054309457351       -0.26981498254515       -5.48099541718560
C            2.80541250838215        0.91136770758423       -6.07919851336084
C            2.69895422127422        2.15550754169546       -5.21370000184717
O            3.37890475110964        3.26379793276377       -5.78786382035857
C            3.14721435325618        4.47933969456853       -5.09500304210915
C            3.65995577295713        4.45662789489991       -3.66423861601938
C            5.11779384795475        4.03446722408341       -3.59372594484735
C            5.63011208269048        3.99965844179969       -2.16387907586857
O            5.54000162156729        5.27674615942971       -1.54385122029726
C            6.13119995188772        5.31706622823663       -0.25253166753707
C            5.30041155843603        4.62714236331568        0.81845148593054
C            3.96557216551835        5.32060252003063        1.07469668110720
C            3.06381027429218        5.41205660279848       -0.14641916103699
O            1.74635280754088        5.82196081594543        0.20442316153369
C            0.89322486695768        5.98537853665893       -0.92490696532180
C           -0.56667080009165        6.08572299422898       -0.50926419135127
C           -1.52702865928296        6.21191417980202       -1.68449561276312
C           -2.97373550917652        6.21887055300322       -1.21663154054024
O           -3.24720013646384        7.34607507921551       -0.39160953474095
C           -4.36384682403274        7.15608165085326        0.47100281133717
C           -3.99208849654034        6.44193612939983        1.76255216304643
C           -5.16253691918106        6.30860487997620        2.72786409107082
C           -4.74772600857741        5.65213400980668        4.03541541413764
O           -4.26924819889786        4.32896402409197        3.83810030882546
C           -3.77219238139638        3.73639706367547        5.03402283931701
C           -2.36993936384230        4.20633260426680        5.39335082358587
C           -1.76577991899313        3.42661066840546        6.55748521751863
C           -0.36143485126811        3.89018023996025        6.90990890844435
O            0.18662387834347        3.15469274623899        7.99806852651412
C            1.56209102815773        3.43521895494137        8.22384446752218
C            1.80689955849773        4.77246104347889        8.91263626812140
C            3.28431993305932        5.15876392252760        8.97216922591867
C            4.15357558123581        4.16013427120135        9.72263450504717
O            5.53654922807315        4.48359286462864        9.61617247043381
C            6.37397158525220        3.52699372930084       10.25076837476388
C            7.85381444757767        3.81478562144668       10.03491042844754
C            8.24192760266023        3.80230406416661        8.56001571266862
C            7.77601650793116        5.06043871769378        7.84086890568200
O            8.43531653739669        6.21045846153139        8.33326612704567
H           -8.58132056305074       -6.10603880185508       -3.63402371161548
H          -10.57826138660121       -7.73894629717864       -4.80975191644858
H           -8.93772239707456       -7.78573433275740       -5.43531107030361
H           -8.05953248326932       -8.37358985396705       -3.17723286396345
H           -9.64577374637775       -8.19793342362858       -2.48622335630366
H           -8.90355555206459      -10.30362964170216       -4.57400349126480
H          -10.48414156390492      -10.11309811917127       -3.85383691474556
H           -9.19472370768788      -11.90322150325152       -2.64365041833629
H           -7.90998550173176      -10.75145916277594       -2.31688226150241
H          -11.06539624643399      -11.51073538585115       -0.32040894043192
H          -11.26941018998289      -11.38069565392182       -2.05804910768820
H          -12.95542231833458       -9.96153090484477       -0.95805414225517
H          -11.81865112844756       -8.93678990433176       -1.79979405626395
H          -12.40817416394720       -8.13586068839663        0.55214452122457
H          -11.63438017967716       -9.55978428844413        1.19262830039361
H          -10.26046218169169       -7.41015564151427       -0.48945087346710
H           -9.46756183290257       -8.85538525307517        0.16690828512254
H           -9.36277575496253       -5.70091020590899        0.71421823133272
H           -9.03362396713228       -5.93608032690291        2.41764381351517
H           -7.48008961673791       -7.91620565523144        1.63668833820771
H           -6.86781218488403       -6.28512834877683        1.55549284073560
H           -8.06162438221125       -7.74190031931011       -0.85594879070373
H           -6.36723442689970       -7.64391889506383       -0.51413639942481
H           -8.16216834806076       -5.21503497235421       -1.02856648771247
H           -6.43760790173133       -5.16122906926879       -0.68520184184710
H           -5.50222955246072       -4.53848915558849       -2.61165413302449
H           -7.13894178674718       -3.96106197360077       -2.93785127040425
H           -7.12751988305420       -5.24084578912736       -5.11198652363313
H           -5.52990935439227       -5.82914564805182       -4.75096277397816
H           -4.71935168962440       -3.39856261356571       -4.68691151997594
H           -6.28971185636080       -2.89066839185751       -5.21567605030874
H           -4.55109430394927       -4.87582463095311       -6.77971124148755
H           -6.05507440704648       -4.14754661652076       -7.33540751880876
H           -3.85208862949367       -4.03206838258564       -8.86107679574063
H           -5.21151528075717       -2.94460233254447       -9.13732332457084
H           -2.29470628102469       -2.10212193465129       -8.73885847913003
H           -3.61933692667913       -0.98120499104228       -8.88043142908305
H           -2.77013445441963       -2.99130481240936      -11.02905344469370
H           -4.13833330814651       -1.91189507336725      -11.17985248357050
H           -2.57391515682361        0.05813928590212      -10.92778890373958
H           -2.16237532062690       -0.92565955487369      -12.33063665501757
H           -0.17577158918418        0.41867015421765      -11.93576260661639
H            0.96529275493984       -0.28914518817670      -10.79848995358113
H            0.32453437674779        1.96491419918292       -9.96094163269782
H           -1.36778005198584        1.55983418861252      -10.06819577884865
H           -0.97885388210665       -0.34067673530835       -8.42927174805042
H            0.66117546838665        0.18998747217792       -8.24042715343813
H           -0.10365465209540        2.35601394894884       -7.28655214253099
H           -1.77841443569910        1.94343898199719       -7.65577404150651
H           -2.24086647320497        2.35642193336840       -5.56162763963861
H           -0.63960382062065        2.43719056606275       -4.84088466780206
H           -2.74998267550041        0.29550086696180       -4.24977440602733
H           -1.17093740658568        0.36020208389451       -3.50694848432519
H           -3.10866200800821        1.34586690233573       -2.11238522865205
H           -3.16374746551862        2.66710565566407       -3.25731829873561
H           -0.70715470285956        3.13585193630118       -2.73064286677808
H           -1.74539867884382        3.29076551563681       -1.31470822850581
H            1.12623425413420        2.77171133105552       -1.36290636274636
H            0.10208414541409        2.91441370103067        0.06427710362262
H            1.75018143546966        0.46697459501379       -0.72551944486400
H            0.69096858985812        0.52472817102786        0.65830525412524
H            3.16425994116808        0.89919203218295        1.20009745333751
H            3.09230603483445        2.39080190897553        0.30586872966015
H            1.31574347714056        3.22282244740521        1.91003458810363
H            1.47147835588667        1.71094048683237        2.81152782542911
H            2.57112490705174        2.60204025034856        4.84378976531110
H            1.63917915979240        3.88142298196334        4.06075009637172
H            3.62802254842529        5.36818012996205        4.06473252036934
H            3.20962639452423        4.90619897653521        5.69440035512698
H            5.30521398958218        3.42711372080309        4.05054032126958
H            5.72340430195631        4.78567451134382        5.07043787572209
H            4.92011925157530        3.56574659603215        7.08774024654646
H            6.11019360098205        2.59576529108497        6.22353627649482
H            5.32067567406165        1.14248881517053        7.59767442728186
H            3.58462595200723        1.14575841628689        7.87348438736235
H            3.29380997324412       -0.59991080893953        6.10981405804174
H            4.35709767111418       -1.16538710020045        7.38002187780988
H            5.43315816173002       -1.78202058563275        5.29424809651108
H            6.34074256216999       -0.43026062314282        5.91536413921970
H            5.01213301988210        1.10950291547820        4.38587147770825
H            4.21870018676429       -0.30677113882720        3.71646513329004
H            5.69357748429243        1.52412682101998        2.19722506591201
H            5.07618638261628       -0.02591759017885        1.62190553820640
H            7.38128558223965       -0.71567176663030        0.97246915298483
H            8.01950222989959        0.79686526198671        1.55373734308223
H            6.73289742185485        2.04786583194235       -0.18808996462264
H            7.76747183142840        0.85914704344852       -0.92035172836820
H            4.74609139302741        0.63502116238097       -0.49232130702969
H            5.73063156504950       -0.73346002152352       -0.96084869996102
H            6.78394951677854        0.77588398540694       -3.96929442990212
H            7.24880485223847       -0.33664389085719       -2.69390486672601
H            4.86185617019518       -0.65669815046550       -4.58308904961063
H            6.33471954577830       -1.58817912929484       -4.66354807325277
H            5.83056706915126       -2.50584204872541       -2.34906695789889
H            4.34512127024523       -1.59558685139198       -2.34458578441365
H            3.58825580734038       -2.88945238115058       -4.40320346457091
H            5.06795107654811       -3.82335504849969       -4.31610187415136
H            1.94544605012253       -4.15325021626993       -3.74260333472617
H            1.97817396258065       -4.91921107429132       -2.16118910296547
H            2.22789590561300       -1.91293378013295       -2.66800937160000
H            0.79019339894347       -2.68903279361525       -2.06998578695122
H            2.40293898506434       -1.58349797799037       -0.32414084505800
H            3.44708971701371       -2.95242493539442       -0.58029519973067
H            1.64508876418736       -4.51349564607229        0.14508958430267
H            0.52231769733261       -3.17651784715520        0.31151677060642
H            2.95574040799658       -1.48943053543513        1.90578398709356
H            1.22757901385346       -1.38909132592299        1.57635696924110
H            2.48742684826389       -2.26761142155314        4.21432243423249
H            1.67706900183262       -0.73770176846551        3.92698018844288
H            0.38265063842599       -3.50505081837577        3.84211264120731
H            0.15990303453564       -2.29010728466421        5.08605455631196
H           -0.75627818600118       -2.10191055737808        2.17440102402573
H           -1.78231871931018       -2.17446699632506        3.60122004940985
H           -2.75038188821012       -0.21548437677861        2.63236514578950
H           -1.50446043665954       -0.14561471178325        1.38518041156416
H           -2.07206452743522        2.00673761326504        3.47966104271206
H           -0.72674278569548        2.05521546764559        2.38093032292498
H           -2.44953222732186        3.45167150667122        1.41567215268724
H           -2.34490788971787        2.01294567634258        0.43399814673554
H           -4.73793695690464        2.65633131150641        0.90797693710076
H           -4.43334619753311        2.47494050790562        2.62495520803165
H           -4.94649152334124        0.86470655521041       -0.41032203432729
H           -3.36309104163657        0.18768139200888       -0.03755561938530
H           -4.47398826704363       -1.84623458172949        0.92869107804673
H           -6.03582654501515       -1.16300785463179        0.57262598869535
H           -5.42252545641291       -1.16251033493849       -1.90906756688664
H           -5.53120966797638       -2.75196556122010       -1.20599253387311
H           -3.03473207897994       -2.82347584935877       -0.94936024769253
H           -2.92225201113215       -1.22415238760262       -1.67539092681774
H           -1.60901925190900       -2.01763071485248       -3.28279984149085
H           -1.69842720578944       -3.67360147298502       -2.69690691896887
H           -2.59229802520118       -2.75616783963181       -5.48242102720454
H           -2.67142728536677       -4.39656325004978       -4.88825971601636
H           -0.65347948993648       -4.23480689597006       -6.25657577697863
H           -0.14663597225897       -4.37273665446265       -4.59646475575988
H            0.09870872714992       -1.83057571303599       -4.51861517256493
H           -0.28346416108594       -1.79450407130382       -6.23649029786189
H            1.74259918212228       -1.40273238095462       -7.31257695483539
H            3.21137431662256       -1.81493984215555       -6.45766769194778
H            2.41404852677961       -0.46534858090841       -4.46669763047961
H            0.99738320571441        0.00424894035504       -5.35877934035228
H            3.86121170131489        0.65796889315792       -6.22417539578203
H            2.42768886123669        1.13661545999428       -7.08220285374549
H            3.12014248247025        1.96147274608861       -4.22162663696388
H            1.65020239745742        2.43436000837072       -5.06928695920342
H            3.65835696739194        5.26008755787884       -5.66994076790214
H            2.07517614281157        4.70446081905240       -5.14306115675867
H            3.05247440295740        3.77518969253174       -3.05842761348589
H            3.53971613990867        5.44242148799490       -3.19873613961396
H            5.72659821805407        4.73194111326372       -4.18012819121452
H            5.24363072300233        3.05548604362860       -4.07259041698032
H            5.04552766596156        3.28756869960028       -1.57307434452546
H            6.67609416904450        3.67371683737153       -2.12885105294600
H            6.26344718587263        6.37572035420814       -0.00216217906248
H            7.13766390753036        4.88840460547439       -0.32684504949587
H            5.87349226972095        4.56855719225285        1.75323986347992
H            5.11874757511458        3.58804364261137        0.52858407886748
H            4.13288299036363        6.32843017336003        1.47140549933911
H            3.41424024045041        4.79045338527540        1.85855709056993
H            3.46797483351226        6.12084271907752       -0.87758727079835
H            2.99014496835647        4.44060843069260       -0.64435720846132
H            1.04125096857446        5.13731697452455       -1.60165228082757
H            1.21216240735665        6.88413497783412       -1.46399403728465
H           -0.69672715338366        6.93627532243969        0.16959397833020
H           -0.82651997234094        5.20694683777925        0.09114451319590
H           -1.31791156715945        7.13817307824341       -2.23137061438468
H           -1.35507534355290        5.40039520401535       -2.40103148175831
H           -3.67263233556784        6.25079842926071       -2.06090907135868
H           -3.19460014890250        5.30687675469710       -0.65193831520787
H           -4.76668226118176        8.15143529446667        0.69031593250777
H           -5.14675995736108        6.61814817651219       -0.07507901738198
H           -3.58373282635063        5.45092151947513        1.54198152268708
H           -3.17112213535625        6.98394999600770        2.24559156784619
H           -5.95632987680897        5.71508382421015        2.26024021948262
H           -5.60063196828690        7.29628306305200        2.91783715505961
H           -5.58736799524854        5.60177718354605        4.73870337470211
H           -3.95657702486177        6.23620017536576        4.51607946452947
H           -4.47992734839394        3.93322305979977        5.84685784062160
H           -3.78203162963751        2.65150509653191        4.88182470801957
H           -2.38091298255084        5.27521347228872        5.63161251020318
H           -1.72405979193962        4.11953346709962        4.51236168974487
H           -2.40741062619742        3.51190402632240        7.44163009517870
H           -1.74227170635180        2.35625932436455        6.32282298591233
H           -0.36560832125015        4.95227157749377        7.17410021393048
H            0.30283953947770        3.77583477150499        6.04708717925654
H            2.08726847131625        3.37870698635541        7.26464336407532
H            1.94820959924563        2.61191295272720        8.83424506645905
H            1.38495436604896        4.73717078773969        9.92338965697426
H            1.24336346951318        5.55614750338440        8.39458695335773
H            3.40788938819035        6.14858693604990        9.42793597720931
H            3.67544790470199        5.26777963372259        7.95540647452666
H            4.01751511621713        3.14964689922588        9.32541626793790
H            3.88516611345747        4.12676190504562       10.78420954408785
H            6.11855320562896        2.53927660869319        9.85130146511078
H            6.12100989719411        3.51980194477328       11.31759203780816
H            8.09353212659246        4.79931206524235       10.45289454795550
H            8.45820200365791        3.09009067154460       10.59637013494758
H            9.33200355755875        3.73386000926759        8.45723808642299
H            7.83605940705438        2.90436984432658        8.07860529457039
H            6.69602250887566        5.19420079007487        7.98045174401681
H            7.95967535123766        4.98816832123999        6.76062086336773
H            8.08309660677693        7.02888234847427        7.91257041848867
